SiOCHF   density: 1.125   2023-11-21 10:30:22
   1.0
      9.1699088270654    0.0000000000000    0.0000000000000
      0.0000000000000    9.1699088270654    0.0000000000000
      0.0000000000000    0.0000000000000    9.1699088270654
   Si   O   C   H   F
   6    6    6    72    6
Selective dynamics
Direct
  0.468525423917772  0.649120219406089  0.194031608563729   T   T   T
  0.848229151188429  0.257530012407815  0.016426857548148   T   T   T
  0.422155296257384  0.895161913438109  0.415086612615366   T   T   T
  0.179813982855951  0.960413344415472  0.431768226436712   T   T   T
  0.828922353657961  0.310724867700832  0.534382903608166   T   T   T
  0.499565995908078  0.747614581874806  0.618910933874513   T   T   T
  0.384420867827623  0.786245970006942  0.799016513521951   T   T   T
  0.503780589238777  0.366691983567232  0.032198304075707   T   T   T
  0.287957883416586  0.590645538938615  0.537329884625076   T   T   T
  0.308640966913675  0.104305812862546  0.341260407120854   T   T   T
  0.849343346872867  0.774627238736000  0.508917529103658   T   T   T
  0.035982831569584  0.018451395231132  0.452824121306550   T   T   T
  0.711725168405322  0.514241086762262  0.732276732806563   T   T   T
  0.305970658268302  0.058515051026130  0.576306766988816   T   T   T
  0.685017683059140  0.282523484434289  0.413020252416981   T   T   T
  0.023287345371671  0.585180126368948  0.173520825911565   T   T   T
  0.772051827739974  0.462106548274774  0.940954987299905   T   T   T
  0.117425694983048  0.440732601118943  0.505094323329783   T   T   T
  0.137021971030417  0.572617349017586  0.877539432999345   T   T   T
  0.962015476010792  0.534570437367350  0.181645987824625   T   T   T
  0.056311974726437  0.372247695933704  0.819162739543690   T   T   T
  0.652240560894302  0.479979461733867  0.433831253606080   T   T   T
  0.374919052943874  0.178427538062420  0.754718205298879   T   T   T
  0.600826362576980  0.859132931929070  0.841898848772914   T   T   T
  0.108305080645602  0.683341830467298  0.369641000963160   T   T   T
  0.393882526055738  0.693609734919467  0.029087548733600   T   T   T
  0.310298900394130  0.386052654662197  0.671473173875228   T   T   T
  0.488086854731343  0.525305668428903  0.920664640331744   T   T   T
  0.687384217058091  0.006520156087967  0.678194086178255   T   T   T
  0.281992781871663  0.808199549307005  0.158886425078895   T   T   T
  0.651376370857425  0.659119158634409  0.648124856294819   T   T   T
  0.756371652825048  0.546319123399366  0.514512619010428   T   T   T
  0.102286406912877  0.705807455413999  0.568653671172962   T   T   T
  0.778468501773634  0.870368552394461  0.104910845864580   T   T   T
  0.295845926295812  0.335419115885664  0.933612596437628   T   T   T
  0.388722886166446  0.062864182567973  0.075962159172328   T   T   T
  0.666467669553749  0.585251149175252  0.068771994089450   T   T   T
  0.617486489599279  0.175458054501276  0.085496475167178   T   T   T
  0.319196529002726  0.122163631766021  0.967691442262311   T   T   T
  0.235172766393046  0.461043915085266  0.250381831109336   T   T   T
  0.455367776407978  0.255083715651211  0.307655075127976   T   T   T
  0.974472104937696  0.962023522040926  0.291241755025416   T   T   T
  0.602118675430899  0.980309516046086  0.029300964324793   T   T   T
  0.887692091735518  0.426933121407356  0.750296546931491   T   T   T
  0.787243205499644  0.231899095361311  0.862688191946340   T   T   T
  0.203006566440000  0.228311787696478  0.990137986658166   T   T   T
  0.201690619895659  0.921360864838122  0.979196026028342   T   T   T
  0.394146779104439  0.681596721369655  0.999373737430976   T   T   T
  0.016154988845640  0.764042908566543  0.836933073664672   T   T   T
  0.608226815160949  0.961148482544822  0.404978728107432   T   T   T
  0.583400803752434  0.333121178298278  0.755564182624725   T   T   T
  0.588830630275981  0.106445906667281  0.892030125269797   T   T   T
  0.925201598032563  0.074716388981682  0.914166823557002   T   T   T
  0.897177040506650  0.733339332550005  0.684606885140033   T   T   T
  0.162031800854027  0.891262796128941  0.683654745169110   T   T   T
  0.987812948450371  0.038119162471891  0.115191055306452   T   T   T
  0.073116795699867  0.970054560891343  0.129272226353863   T   T   T
  0.888608814303434  0.023347821169060  0.229288876236489   T   T   T
  0.025281943849233  0.965727758926989  0.575463595090953   T   T   T
  0.951235080316507  0.810317197127172  0.820421771818380   T   T   T
  0.069567143147893  0.109766355368962  0.193446041276785   T   T   T
  0.148899663186943  0.366343727823651  0.703294040769421   T   T   T
  0.518125671437326  0.756363882927854  0.356131418282168   T   T   T
  0.858534781907737  0.719324678395125  0.109142529627322   T   T   T
  0.652716685556795  0.883476861781130  0.545436371884154   T   T   T
  0.150471815843829  0.838527741703004  0.301802174268769   T   T   T
  0.208384806006743  0.258947407095262  0.337762986234173   T   T   T
  0.956832055608270  0.204501127956726  0.414738150699993   T   T   T
  0.809039341203274  0.690893686196712  0.345521918964476   T   T   T
  0.798658744146373  0.921119549678457  0.666327094859190   T   T   T
  0.999285966203349  0.191995042178972  0.114283541265266   T   T   T
  0.637416024237009  0.249637733795493  0.635000958841680   T   T   T
  0.523728708741988  0.048833357090264  0.559583174698625   T   T   T
  0.701280889324523  0.374001677661319  0.122819231200831   T   T   T
  0.125463444826385  0.398359635129555  0.183828606164535   T   T   T
  0.260392619300031  0.359552977890884  0.063815318474301   T   T   T
  0.489823931729842  0.607085561643965  0.371103307548797   T   T   T
  0.937864461235580  0.589234223184236  0.757873922712410   T   T   T
  0.978204412387389  0.376601279566261  0.256419684254885   T   T   T
  0.771195657123985  0.932752515994272  0.890441853431706   T   T   T
  0.712909119931258  0.008110525171650  0.301252436014448   T   T   T
  0.007478718083553  0.436727775410144  0.060759313178455   T   T   T
  0.790594166169087  0.982739915333499  0.442045244574963   T   T   T
  0.176654936588229  0.737754363659517  0.796375106435329   T   T   T
  0.310176442981151  0.614919448766779  0.762002448222593   T   T   T
  0.101124086087002  0.995436100756684  0.891680940415731   T   T   T
  0.781258636205939  0.743510701395030  0.780517871393174   T   T   T
  0.810939611886227  0.087403168800084  0.577780016609137   T   T   T
  0.532190410587959  0.023850640801946  0.022112663015065   T   T   T
  0.964191116143535  0.153314732921313  0.678066138522069   T   T   T
  0.824039302554925  0.080782684929081  0.028160030899247   T   T   T
  0.394942897649720  0.979457113960632  0.068101138295082   T   T   T
  0.115808087865112  0.228990597352857  0.019643432405528   T   T   T
  0.644510504259039  0.620642984987969  0.905352485843670   T   T   T
  0.645588944639813  0.592096000926174  0.281408942857538   T   T   T
  0.055681506129053  0.792553540368397  0.158675731177736   F   F   F
