 F  O Si                                
   1.00000000000000     
     9.9854713622970994    0.0000000000000000    0.0000000000000000
    -4.9927356812464998    8.6476718684975999    0.0000000000000000
     0.0000000000000000    0.0000000000000000   27.4653860133710985
   F_s    O_s    Si   H_s
    17    40    24    1
Selective dynamics
Direct
  0.5 0.5 0.45 T T T
  0.1695940476767787  0.7247300518779762  0.5075452456332739   T   T   T
  0.6296534386328282  0.1986366748894618  0.1098812242876764   F   F   F
  0.6695940480487218  0.2247300522144177  0.5075452455237486   T   T   T
  0.1296534380071131  0.6986366753230805  0.1098812242795203   F   F   F
  0.1296534385724761  0.1986366748579919  0.1098812241004884   F   F   F
  0.1695940480912454  0.2247300526835308  0.5075452453372344   T   T   T
  0.9435055439072793  0.8124637447618732  0.4772644203131831   T   T   T
  0.6695940478824319  0.7247300527046119  0.5075452453651699   T   T   T
  0.9435055437639708  0.3124637445190159  0.4772644202325104   T   T   T
  0.6296534385000003  0.6986366748883606  0.1098812241544283   F   F   F
  0.4435055435107924  0.8124637443212011  0.4772644202586066   T   T   T
  0.4435055435145691  0.3124637443891260  0.4772644204729248   T   T   T
  0.4471406284608648  0.2923623575241563  0.0805119104062751   F   F   F
  0.4471406288827940  0.7923623574257843  0.0805119106951351   F   F   F
  0.9471406291093860  0.2923623573202164  0.0805119108447836   F   F   F
  0.9471406291109428  0.7923623575323115  0.0805119108114317   F   F   F
  0.8583221046203084  0.0820245451111845  0.1498701350040317   T   T   T
  0.2051965342414374  0.6366444183245227  0.4207826247204601   T   T   T
  0.7051965340186405  0.1366444189079068  0.4207826248039221   T   T   T
  0.8583221042244994  0.5820245441670232  0.1498701347618822   T   T   T
  0.2051965341087831  0.1366444170128566  0.4207826245013828   T   T   T
  0.1994417917384991  0.1305518707844951  0.2195755867864803   T   T   T
  0.0690328973614659  0.8723582621025379  0.1679653679114161   T   T   T
  0.5690328982745197  0.3723582628171948  0.1679653680832394   T   T   T
  0.3583221059042010  0.5820245460104883  0.1498701347884872   T   T   T
  0.5690328978717222  0.8723582625839107  0.1679653679566981   T   T   T
  0.2894461078548435  0.4257987917221128  0.2332655452431270   T   T   T
  0.2894461059464598  0.9257987892250796  0.2332655456514630   T   T   T
  0.7894461068050795  0.4257987911088743  0.2332655451366825   T   T   T
  0.7894461065710143  0.9257987909750353  0.2332655452671651   T   T   T
  0.0690328976170215  0.3723582620151727  0.1679653680534751   T   T   T
  0.3583221051915001  0.0820245459000731  0.1498701346598308   T   T   T
  0.7051965352439380  0.6366444182724451  0.4207826245151420   T   T   T
  0.8688084143961660  0.0859055352172833  0.3534844663076324   T   T   T
  0.8688084102263071  0.5859055305147962  0.3534844670837912   T   T   T
  0.1994417914222784  0.6305518711316306  0.2195755872197428   T   T   T
  0.6994417904258561  0.1305518696034520  0.2195755866049655   T   T   T
  0.6994417929897736  0.6305518710712535  0.2195755873686672   T   T   T
  0.4181080455441816  0.2991372247433052  0.2856857017542955   T   T   T
  0.4181080428703361  0.7991372231774364  0.2856857024290911   T   T   T
  0.9181080460337029  0.2991372239659804  0.2856857026060663   T   T   T
  0.1264339165249506  0.2154225625961432  0.3021835942291153   T   T   T
  0.1264339202263381  0.7154225626450069  0.3021835933336561   T   T   T
  0.6264339179993542  0.2154225622444864  0.3021835940872795   T   T   T
  0.6264339190431482  0.7154225627198091  0.3021835941537064   T   T   T
  0.9181080442030668  0.7991372254456942  0.2856857013819736   T   T   T
  0.0750417263320709  0.8801159994685572  0.3688684009717914   T   T   T
  0.0750417225058985  0.3801159944982836  0.3688683997275939   T   T   T
  0.3688084111668142  0.0859055318994937  0.3534844671818420   T   T   T
  0.7894272748608412  0.9290489503647246  0.4364933398895001   T   T   T
  0.7894272747947233  0.4290489511134529  0.4364933391677249   T   T   T
  0.2894272738880382  0.9290489518287915  0.4364933388381911   T   T   T
  0.3688084142263308  0.5859055344972737  0.3534844667820974   T   T   T
  0.2894272758406308  0.4290489520045034  0.4364933399548369   T   T   T
  0.5750417220628739  0.8801159955286448  0.3688684005016993   T   T   T
  0.5750417257053178  0.3801159982692212  0.3688684004135169   T   T   T
  0.0000000000000000  0.2369344593231375  0.1270348133003907   F   F   F
  0.2580660791916330  0.2675410493122134  0.2601022893242304   T   T   T
  0.7298501384639741  0.5033208175303012  0.1926977732793563   T   T   T
  0.7298501403815515  0.0033208130419442  0.1926977730599676   T   T   T
  0.2298501397241258  0.5033208144834694  0.1926977725794024   T   T   T
  0.2298501398877474  0.0033208141933993  0.1926977730451406   T   T   T
  0.5000000000000000  0.7369344593231375  0.1270348133003907   F   F   F
  0.5000000000000000  0.2369344593231375  0.1270348133003907   F   F   F
  0.0000000000000000  0.7369344593231375  0.1270348133003907   F   F   F
  0.2580660839291223  0.7675410510104148  0.2601022895392715   T   T   T
  0.4968960968726802  0.7454299212937757  0.3275997291639577   T   T   T
  0.2755587159841232  0.2753138776687288  0.4604983418241110   T   T   T
  0.9968961006865693  0.7454299205611239  0.3275997317595752   T   T   T
  0.9968960985664852  0.2454299228065826  0.3275997311259885   T   T   T
  0.7346993337145302  0.5071219508783281  0.3949378068425464   T   T   T
  0.7346993359515771  0.0071219516624989  0.3949378057181994   T   T   T
  0.2346993304956636  0.5071219459635786  0.3949378050843508   T   T   T
  0.2346993345054290  0.0071219499842051  0.3949378061481266   T   T   T
  0.7755587144630408  0.7753138761387873  0.4604983415555897   T   T   T
  0.7755587169304621  0.2753138812374676  0.4604983417074099   T   T   T
  0.2755587184101728  0.7753138839178880  0.4604983423448282   T   T   T
  0.7580660814606610  0.2675410495075962  0.2601022897098433   T   T   T
  0.4968960971297316  0.2454299190753701  0.3275997309770358   T   T   T
  0.7580660752304921  0.7675410479168633  0.2601022879407358   T   T   T
  0.5 0.5 0.49077 T T T

  0 0 -0.46536173769530016
 -0.74130539E-03 -0.49323057E-03  0.32700499E-02
  0.00000000E+00  0.00000000E+00  0.00000000E+00
  0.43527272E-02 -0.53256042E-02 -0.71776884E-02
  0.00000000E+00  0.00000000E+00  0.00000000E+00
  0.00000000E+00  0.00000000E+00  0.00000000E+00
 -0.70217027E-02  0.14395271E-02 -0.39358138E-02
  0.11601939E-02 -0.33994557E-02  0.83890628E-03
 -0.46372546E-02  0.61473520E-02 -0.73044212E-03
 -0.32733294E-02  0.37037949E-03  0.17189903E-02
  0.00000000E+00  0.00000000E+00  0.00000000E+00
 -0.52115979E-02  0.48894630E-03  0.42040288E-02
  0.49814270E-02 -0.13114712E-02  0.43599533E-02
  0.00000000E+00  0.00000000E+00  0.00000000E+00
  0.00000000E+00  0.00000000E+00  0.00000000E+00
  0.00000000E+00  0.00000000E+00  0.00000000E+00
  0.00000000E+00  0.00000000E+00  0.00000000E+00
 -0.23331561E-02 -0.22122497E-02 -0.51476191E-02
  0.39506141E-02 -0.14246505E-02  0.26165210E-03
  0.46759792E-03  0.12852293E-02 -0.62536151E-02
 -0.70740673E-03  0.45481846E-03  0.23216402E-02
  0.28392914E-02 -0.74945578E-03  0.59027357E-02
 -0.80624081E-03  0.12070760E-02  0.56738288E-03
  0.14623558E-02  0.96621171E-02 -0.65796369E-02
 -0.37614594E-02 -0.52659985E-02 -0.39326912E-03
  0.88682614E-03 -0.83246865E-03 -0.14715726E-02
 -0.25668382E-02  0.29731876E-02  0.29597250E-02
 -0.16289286E-02  0.71206005E-03  0.48119044E-02
  0.96509028E-02 -0.12913249E-02 -0.25692116E-03
  0.19522259E-02 -0.57791820E-03 -0.79588001E-03
 -0.36818323E-02  0.46328374E-02 -0.81259913E-03
  0.32081791E-02  0.67205584E-02 -0.19548856E-02
 -0.69701129E-02 -0.55168288E-03  0.19735402E-02
  0.33572002E-02  0.30637819E-02 -0.24970343E-02
 -0.65033671E-02 -0.58046365E-02  0.40869934E-02
 -0.86545869E-03  0.30685875E-02 -0.25627445E-02
 -0.17078177E-02 -0.41005409E-02  0.47509280E-02
 -0.40605699E-02 -0.41653195E-03 -0.25419480E-02
  0.35778908E-02 -0.71418046E-04 -0.18533620E-02
 -0.19935643E-02  0.41961709E-03 -0.50285945E-02
 -0.36625272E-02 -0.45900202E-03  0.10551400E-02
 -0.51802778E-02 -0.39285924E-02  0.98429884E-03
 -0.12328044E-02 -0.27177856E-02  0.72473214E-03
 -0.33399257E-02  0.11882119E-02 -0.28236362E-02
 -0.68168768E-03 -0.10934351E-02 -0.37139965E-02
 -0.75931314E-02  0.37199113E-02 -0.51013177E-02
 -0.15734714E-02  0.86853812E-02  0.44047793E-02
 -0.43370893E-02 -0.17368672E-02  0.28895977E-02
 -0.21669074E-02 -0.31666991E-02 -0.35925120E-02
 -0.40963224E-02  0.73242017E-02 -0.44675731E-02
  0.31872979E-02 -0.52176974E-02  0.25586596E-02
 -0.83215404E-02 -0.46241515E-02  0.33592787E-02
  0.66841563E-02  0.30730811E-03  0.65816980E-02
  0.30826612E-02 -0.98309357E-03  0.50729347E-03
  0.95968448E-03 -0.60075532E-02  0.38669301E-02
 -0.42820137E-02  0.14204929E-01 -0.90736260E-02
  0.21716051E-02 -0.37007970E-03 -0.16045067E-04
  0.00000000E+00  0.00000000E+00  0.00000000E+00
 -0.16358950E-02 -0.54597260E-03  0.15022407E-02
  0.10633910E-02 -0.35375812E-02  0.17441407E-02
  0.20543299E-02 -0.73977611E-02  0.57009713E-02
 -0.25806343E-02  0.48932143E-02  0.68586556E-04
  0.20063875E-02  0.69887241E-03 -0.57897611E-04
  0.00000000E+00  0.00000000E+00  0.00000000E+00
  0.00000000E+00  0.00000000E+00  0.00000000E+00
  0.00000000E+00  0.00000000E+00  0.00000000E+00
  0.43254186E-02 -0.41142576E-03 -0.12934532E-02
  0.56104378E-03  0.42721707E-03  0.10810650E-02
  0.12532759E-02 -0.14988217E-02 -0.59523251E-02
  0.39219726E-02  0.94242992E-03  0.17192263E-02
  0.45620141E-02  0.29609659E-02  0.17670619E-02
 -0.13984849E-02 -0.48857633E-03  0.66227885E-02
  0.22202208E-02  0.28932589E-02  0.64169086E-03
 -0.23166018E-02  0.80991556E-03  0.26500847E-02
 -0.44931661E-02 -0.20783751E-02  0.15103103E-02
  0.63083849E-03 -0.35484481E-02 -0.19328603E-02
 -0.30232335E-02 -0.33650665E-03 -0.10160633E-03
  0.10822125E-02 -0.13103675E-02 -0.60871588E-02
  0.19258589E-04 -0.21345079E-02  0.37674150E-03
  0.30305505E-02 -0.12978457E-02  0.24490183E-02
 -0.20814960E-03 -0.12246107E-02  0.79775887E-03
 0 0 -0.46536173769530016
