   SYSTEM = Default
 Starting parameters for this run:
   NWRITE =      2    write-flag
   ISTART =      0    job   : 0-new, 1-cont, 2-samecut
   ICHARG =      2    charge: 0-wave, 1-file, 2-atom, >10-const
   INIWAV =      1    electr: 0-lowe 1-rand  2-diag

 El ectronic Relaxation:
   ENCUT   =  300
   PREC    =  Low      normal | accurate
   ADDGRID =  .F.

   NELM   =  300
   EDIFF  =  1E-04    energy stopping-criterion for ELM
   LREAL  =  Auto      real-space projection (.FALSE., .TRUE., On, Auto)
   ALGO   =  Fast     Normal, Fast, Very_Fast
   LWAVE  = .F.
   LCHARG = .F.

 Ionic Relaxation:
   NSW    =  10000
   IBRION =     0     ionic relax: 0-MD, 1-quasi-Newton, 2-CG, 3-Damped MD
# EDIFFG = -0.02
   ISIF   =     1     (1:force=y stress=trace only ions=y shape=n volume=n)
   ISYM   =     0     (1-use symmetry, 0-no symmetry)

 DOS related values:
   ISMEAR =     0     (-1-Fermi, 1-Methfessel/Paxton)
   SIGMA  =     0.1   broadening in eV
   LORBIT = 11

  POTIM  =    2   initial time step for geo-opt (increase for soft sys)

  MD parameter settings:
   TEBEG  = 3000
   TEEND  = 3000
   MDALGO = 2
   SMASS = 0

 Parallelization
   NPAR = 2
# KPAR = 2
