Si  O 
 1.0000000000000000
    11.2057552410915999    0.0000000000000000    0.0000000000000000
     0.0000000000000000   11.2057552410915999    0.0000000000000000
     0.0000000000000000    0.0000000000000000   26.2057552410916017
 Si  O  
  33  66
Selective dynamics
Cartesian
  2.9559027443620036  8.8452464911184094  7.4078946003350090   T   T   T
  9.7980853900610434  0.5676846433646405  2.0553423025729156   T   T   T
 -0.1564602023158029  6.6067742890213417  8.6085586613331184   T   T   T
  1.3934392373212459  2.5225938194668918  9.1233025460766299   T   T   T
  9.6537075386915028  2.0938287171308856  5.6302417359367940   T   T   T
  5.2588023501773380  7.5530023503522141  4.4058784232653592   T   T   T
 -0.2607991792963861  4.8407448210197055  1.0006562943957940   T   T   T
  7.0217320720946486  4.5863955402151406  9.3860551849528822   T   T   T
  2.8187319522524401  9.5610211898737685  0.4742937568279044   T   T   T
  2.6702504613226967  6.9900017131540064  9.8747644107609389   T   T   T
  6.4110688956115558  5.8194127109317773  6.7083653462923145   T   T   T
  8.1782799399761004 10.4748754321658488  5.8689406576550978   T   T   T
  3.6487889895642303  1.1283289971854769  5.1286671957901655   T   T   T
  1.5126622660876283 10.6469212716823201  9.4331448091851069   T   T   T
  9.7569733968045522  3.9297365763689220  9.5705746642354139   T   T   T
  2.4173910920303894  6.2810692132716568  3.7075074953346863   T   T   T
  5.4459008978834840 10.7932628349489761  6.9206249203039691   T   T   T
  7.3465373125041928  5.9113560329577037  2.6044446854165253   T   T   T
  8.0921282015578733  7.1880028122785928  8.6205021877338677   T   T   T
  0.8284257660304661  7.6330067355011657  5.9014204554846437   T   T   T
  7.4995060824186792  3.8053339404048230  4.7502140513274833   T   T   T
  1.3486408369064056  2.5673028397715583  6.3673444294720856   T   T   T
  6.8428213654853325  1.7001621095275470  2.6148534446914464   T   T   T
 10.3952406644703519  9.6513025529351282  4.3106603672188752   T   T   T
  2.5376068759837236  3.3828616486170477  4.0562693589910435   T   T   T
  2.8436096197979945  4.1232573574526610 11.1288930847883556   T   T   T
  1.0799150602507674  8.5505984918309057  2.6907262065664135   T   T   T
 11.2049508609497206  2.7034789259541157  2.8493188923914987   T   T   T
  7.7219018174356382 10.0917304826840812  8.6163501191084553   T   T   T
  4.6281219091641956 10.4406794122773174  2.9449656515985279   T   T   T
  9.8050309317834543  9.9186472546474604 10.7175908444667343   T   T   T
  5.7026405712596135  4.0611531510057857  0.8220546114609970   T   T   T
  9.7148420621354870  7.5603869373721428  1.4412869263421773   T   T   T
  5.5567846381351682  7.0206082329283914  5.9280226435785739   T   T   T
  8.2718540788675323  3.4990018336934834  9.1490247480718701   T   T   T
 -0.4106598051211649  6.4325555437055124  1.0132798194182953   T   T   T
  8.6772724937519072 10.0500273173946120  7.3492342939793831   T   T   T
  7.0905613664828193  2.4186310208907615  4.0133577772732423   T   T   T
  6.4046350780115446  4.6589156830227001  5.5539351388216147   T   T   T
  3.6248691138782738 11.0344780308707691  4.1064705185142918   T   T   T
 10.6662985919671733  4.1572158445231437  2.4364057947059448   T   T   T
  8.5080356531705785  3.2269489072202675  5.9141569318541887   T   T   T
  2.1378363547689596  7.2311748826520983  2.3988837499313100   T   T   T
  1.8749451820248184  3.1745891950498395  7.7480556361027260   T   T   T
  8.7800926872624760  9.6309953731315616  4.6386148088621653   T   T   T
  5.1972949748547883  9.0320021163912454  3.6951023462054180   T   T   T
  6.5795489796525537 10.0881994432952347  5.9185872745991004   T   T   T
  8.0869326736343989  4.8716047886157581  3.7038935132421371   T   T   T
  3.3075622442761698  7.5555982089705402  8.4375874267789239   T   T   T
  6.0532392712826484  4.9169019103528173  8.0902224763986119   T   T   T
  1.5541231165196827  3.7731815792746386  5.2996595562690878   T   T   T
  0.8919615801133852  9.5324298507911820  3.9474226299804478   T   T   T
  4.3492644045893485  9.6671152527882001  7.2550509204143330   T   T   T
 10.7232282480726031  8.7198884565036980  5.6886816937289142   T   T   T
  9.7124416840917096  4.3301464383721342 11.2524895770928648   T   T   T
  6.4141314933543159  5.3235364701082659  1.3927026710046164   T   T   T
  8.3446881199036884  6.9277860241856075  1.8966351923495770   T   T   T
  1.8590152654178040  9.7483310452556946  8.1267976568990647   T   T   T
  7.7758898068584807  6.6023425166034828  7.1045840947641921   T   T   T
  0.5497283957997608  6.7410139494005241  7.1727149947119688   T   T   T
  6.0537021363076216  3.9567649110495049 10.4391219368011168   T   T   T
  9.3321752897656722  8.4001763273611161  0.1266145804402697   T   T   T
  9.7506296054382258  7.5757055779639684  8.6834511569000750   T   T   T
  6.4032760017957315 11.0793259031617168  8.2940332665693859   T   T   T
  1.3399472962817562  4.4759371881125434  0.6359761658791400   T   T   T
 -0.7928007840950232  5.1421541933184178  8.8699468793599276   T   T   T
  2.8802305840742526  4.7769628668928368  3.3513077024094331   T   T   T
  8.3560957867256995  1.2481692665069462  2.0968554823880377   T   T   T
 10.2169368040390065 11.0483657709191920  3.3706803588330589   T   T   T
  8.4794166939603244 10.5973200986096980  9.9562147896693656   T   T   T
 10.9955441011662476  2.0127797439706896  6.5901174518546393   T   T   T
 10.4524091736586584  8.2826852799638804  2.6814004541674383   T   T   T
  7.6782271428604725  6.0739893274043499  9.7624366022254563   T   T   T
 -0.1855129180463346  2.8647330157341409  9.4172153727441756   T   T   T
  0.0886526473331696 10.0215797081494582 10.0407965840433988   T   T   T
  3.2425011629377902  5.4813195479114816 10.2910954927086706   T   T   T
  1.5764140988977358  2.4556140763232612  3.1660572599784564   T   T   T
  1.1452427219168708  6.5492585221665784  4.7199250653327276   T   T   T
  8.7164753106193835  0.8139560212798188  5.6838567790957084   T   T   T
  9.9412928739324506 -0.4773444880193244  0.9044273060868506   T   T   T
  1.4423900940941505  9.4233879197161290  1.3675041687576899   T   T   T
  5.9139182884231456 11.5146607941340360  2.6336938001995631   T   T   T
  4.1213516113075839  3.9825550997577732  0.9418488810165797   T   T   T
  2.1588315271295246  1.2501381109653378  5.9103243344244571   T   T   T
  2.2791876194185057  8.3887870859187768  6.0752702861728691   T   T   T
  2.6188975195746651 10.7236062252547644 10.6117037621965888   T   T   T
  6.2524252716341131  2.6757821714182284  1.4117192130090741   T   T   T
  3.9344822272801698  2.5172174269436827  4.2336624762568995   T   T   T
 10.9643030432335529  1.6879448657986789  1.6976379639132324   T   T   T
  4.0393812304760086  9.9210721424729034  1.4467151343798481   T   T   T
  1.2612424746569986  0.9716897760156914  9.0713207906903417   T   T   T
  7.2830777646811740  8.5775669030872344  8.9262631033299460   T   T   T
  3.8051454138220193  6.8397110601950457  4.2109743122497330   T   T   T
  1.0077453119777082  6.9046127485485957  9.6511267546624619   T   T   T
  4.8311557031920911  0.8632990002170043  6.1546915122098955   T   T   T
  2.9539176670566998  8.0377195311186291 10.9576274465331611   T   T   T
  6.3477635782071111  6.8104044094389184  3.4811892020968718   T   T   T
 10.3429131361450288  2.3486203523701299  4.2038713712946256   T   T   T
  2.6588729168727978  2.8442140915245093 10.2033691707188350   F   F   F
