SiOCHF   density: 1.23335   2023-11-21 10:30:20
   1.0
     13.4478320449281    0.0000000000000    0.0000000000000
      0.0000000000000   13.4478320449281    0.0000000000000
      0.0000000000000    0.0000000000000   13.4478320449281
   Si   O   C   H   F
   33    33    11    11    11
Selective dynamics
Direct
  0.098740028210926  0.919306977386279  0.565894759925387   T   T   T
  0.115249262834473  0.622742810501687  0.137640257118464   T   T   T
  0.313589350460121  0.652508375010913  0.641236866037172   T   T   T
  0.714056546826546  0.557396907463785  0.553552339572742   T   T   T
  0.025228534658423  0.357583987575886  0.553300534653513   T   T   T
  0.594768198883933  0.181169447165284  0.617646375410269   T   T   T
  0.549760886048145  0.289188126923824  0.079437441294088   T   T   T
  0.775882827388549  0.661074638208483  0.174975502561874   T   T   T
  0.903368639689556  0.070848088367586  0.416798605190875   T   T   T
  0.096920835375919  0.139915395155688  0.158536760942706   T   T   T
  0.421561111760036  0.907666876671367  0.253166557748223   T   T   T
  0.501685183507007  0.186853045542845  0.025718762696706   T   T   T
  0.079842261720915  0.537503963979405  0.420148959928670   T   T   T
  0.405806813624474  0.849357008087234  0.047008555407099   T   T   T
  0.290089964803970  0.327058051655266  0.308357112629868   T   T   T
  0.793344407100087  0.765313398869495  0.694625962032701   T   T   T
  0.343329599236595  0.544829836693171  0.884849724462954   T   T   T
  0.800627811637139  0.559287492955297  0.714185503587079   T   T   T
  0.043849745221221  0.580755881791497  0.600238070451142   T   T   T
  0.579060844461791  0.694742844173060  0.727112638282459   T   T   T
  0.357651215711093  0.076406142029743  0.704417780233608   T   T   T
  0.272786459617336  0.705451423834216  0.801265915099006   T   T   T
  0.557947998038177  0.119943651381072  0.436636969607079   T   T   T
  0.351409117106622  0.684004053127445  0.193984424423528   T   T   T
  0.754120121012856  0.149280429428999  0.489626669672182   T   T   T
  0.072164417985935  0.072981578643875  0.822599480993498   T   T   T
  0.576038396895451  0.459897445602662  0.313768821427926   T   T   T
  0.516309614040131  0.362611349316464  0.677391930830794   T   T   T
  0.734450828695649  0.040854044239528  0.803993927335028   T   T   T
  0.987249646130798  0.116897155167901  0.322343231111182   T   T   T
  0.669979797121589  0.560919482452263  0.841967561815476   T   T   T
  0.591252334203512  0.511496547612264  0.979866854342456   T   T   T
  0.389892185969380  0.460087952422305  0.212949922439805   T   T   T
  0.534699147932911  0.676572461289014  0.151154243603216   T   T   T
  0.311676870354161  0.933212907332501  0.591496568597011   T   T   T
  0.901454617507107  0.468571081699587  0.867577390666418   T   T   T
  0.891733960549749  0.796673255826259  0.937121955371090   T   T   T
  0.425372951718618  0.171931795244004  0.408682240306553   T   T   T
  0.673423786454563  0.062199728449475  0.605527174378499   T   T   T
  0.751751237888959  0.539675969245582  0.954675560376026   T   T   T
  0.758709259731926  0.896799748367474  0.967122847249313   T   T   T
  0.967269630520060  0.576245860214516  0.779067902136843   T   T   T
  0.629000691190783  0.852697425046845  0.956573313432808   T   T   T
  0.434044629192736  0.733058866598642  0.590416557849142   T   T   T
  0.866125489116838  0.790756246508085  0.326869322348564   T   T   T
  0.151253051429956  0.369817757012760  0.668721729745181   T   T   T
  0.455544131411993  0.375037980075175  0.100707461591470   T   T   T
  0.657741780772948  0.711622207067546  0.630962519090477   T   T   T
  0.201888958974443  0.165041605229718  0.024678910591284   T   T   T
  0.054063523240232  0.755317062985729  0.553367797930205   T   T   T
  0.971648384081434  0.694112841656325  0.400032280300867   T   T   T
  0.341747090855954  0.139951863812853  0.895692389659113   T   T   T
  0.240054636393820  0.825492709465425  0.678057419188636   T   T   T
  0.070402634130015  0.605219522185560  0.316934303659988   T   T   T
  0.705856654494443  0.351183269988734  0.463194056256565   T   T   T
  0.420451258712743  0.697324511420329  0.812799461857282   T   T   T
  0.980499186897636  0.544799726583584  0.649071472391336   T   T   T
  0.185586325224300  0.304472730888990  0.495942899317829   T   T   T
  0.758637020318766  0.448834039318715  0.604976656315187   T   T   T
  0.440911541776792  0.293229813983160  0.348688314350911   T   T   T
  0.690132936413725  0.125329780140016  0.347860770818323   T   T   T
  0.453021851657810  0.969079275045566  0.617216767875577   T   T   T
  0.425531855105124  0.547809214350462  0.692047270927010   T   T   T
  0.776088393147409  0.671266808047875  0.395132306548633   T   T   T
  0.029481612405580  0.274152632049284  0.752290726167922   T   T   T
  0.820736917466336  0.438520283134745  0.223219634305424   T   T   T
  0.824200579643041  0.113503183915351  0.331511473902087   T   T   T
  0.907459156668148  0.310667731474072  0.218735840707675   T   T   T
  0.069260006213448  0.402788352531018  0.749878162685283   T   T   T
  0.303190515222804  0.726997859616558  0.434583606424013   T   T   T
  0.243657698968412  0.578003965692790  0.205587770221478   T   T   T
  0.622174768057319  0.391221591045847  0.092786072088860   T   T   T
  0.556549383672125  0.209792422163822  0.291733545048877   T   T   T
  0.222206763024012  0.477383705480946  0.141110046750763   T   T   T
  0.559864857781150  0.667892915574116  0.473941975316829   T   T   T
  0.109449499844216  0.722872929809743  0.236148453263140   T   T   T
  0.991406688352142  0.338461361158173  0.801520322942886   T   T   T
  0.706273137661831  0.547462751690381  0.272981874870003   T   T   T
  0.320937509196859  0.811018816813474  0.199323486987072   T   T   T
  0.086413815322253  0.255776226671053  0.388382137537342   T   T   T
  0.633004635661104  0.331560097691105  0.631496966749861   T   T   T
  0.945112367412204  0.482642576747168  0.327323052717872   T   T   T
  0.315648115244720  0.149408070679515  0.297611890791235   T   T   T
  0.752501214771164  0.401610394342270  0.017158204130776   T   T   T
  0.310546488060330  0.565132682304859  0.494573553080786   T   T   T
  0.426633154850762  0.428703591925616  0.581513353471875   T   T   T
  0.484854554196040  0.386126164667427  0.259667134207238   T   T   T
  0.325364068479048  0.508954846472012  0.580461470387235   T   T   T
  0.366474720071701  0.244171700166988  0.821326370230252   T   T   T
  0.479787961328055  0.013736803006664  0.951659387347787   T   T   T
  0.066779629817666  0.376382551639029  0.388850024622199   T   T   T
  0.081174242779429  0.242467483095559  0.089106424130288   T   T   T
  0.404307041988039  0.251319846732064  0.230567543117921   T   T   T
  0.452392003793741  0.598967487580183  0.408974053571470   T   T   T
  0.508181804772566  0.597199361354840  0.004543741959988   T   T   T
  0.539051268337275  0.341750051808638  0.414090384598991   T   T   T
  0.716424290298167  0.676302885377973  0.017997434471945   T   T   T
  0.244751405580972  0.821975219676576  0.525159076659474   T   T   T
  0.646005510987302  0.518724281104139  0.459251555503091   F   F   F
