 O
 1.0000000000000000
    15.0000000000000000    0.0000000000000000    0.0000000000000000
     0.0000000000000000   15.0000000000000000    0.0000000000000000
     0.0000000000000000    0.0000000000000000   15.0000000000000000
 O
   1
Selective dynamics
Cartesian
  7.5000000000000000  7.5000000000000000  8.1809399999999997   T   T   T
