CH1F2                                   
   1.00000000000000     
    15.0000000000000000    0.0000000000000000    0.0000000000000000
     0.0000000000000000   15.0000000000000000    0.0000000000000000
     0.0000000000000000    0.0000000000000000   15.0000000000000000
   C    H    F 
     1     1     2
Selective dynamics
Direct
  0.5000000000000000  0.5000000000000000  0.5000000000000000   F   F   F
  0.5000000000000000  0.5000000000000000  0.5747735077570115   F   F   T
  0.4640770755629079  0.4187401647245618  0.4865024533145880   T   T   T
  0.5852114625697900  0.4907608600986356  0.4706766339482196   T   T   T
 
  0.00000000E+00  0.00000000E+00  0.00000000E+00
  0.00000000E+00  0.00000000E+00 -0.38584093E-03
  0.13488853E-01 -0.42214299E-02 -0.17110511E-01
 -0.80521079E-02 -0.94143876E-02 -0.10268192E-01
 
           1
   2.00000000000000     
 -0.14433986E+01  0.30424786E-01  0.12500816E-01 -0.14648614E+01
  0.50000000E+00  0.50000000E+00  0.50000000E+00
  0.50000000E+00  0.50000000E+00  0.57472206E+00
  0.46587559E+00  0.41817731E+00  0.48422105E+00
  0.58413785E+00  0.48950561E+00  0.46930754E+00
  0.00000000E+00  0.00000000E+00  0.00000000E+00
  0.00000000E+00  0.00000000E+00  0.00000000E+00
  0.00000000E+00  0.00000000E+00  0.00000000E+00
  0.00000000E+00  0.00000000E+00  0.00000000E+00
  0.00000000E+00  0.00000000E+00  0.00000000E+00
  0.00000000E+00  0.00000000E+00  0.00000000E+00
  0.00000000E+00  0.00000000E+00  0.00000000E+00
  0.00000000E+00  0.00000000E+00  0.00000000E+00
