SiOCHF   density: 2.4667   2023-11-21 10:30:20
   1.0
     10.6735513674052    0.0000000000000    0.0000000000000
      0.0000000000000   10.6735513674052    0.0000000000000
      0.0000000000000    0.0000000000000   10.6735513674052
   Si   O   C   H   F
   33    33    11    11    11
Selective dynamics
Direct
  0.534429598189013  0.116023140085610  0.162758086692831   T   T   T
  0.334566067539253  0.876708148299753  0.868328262577304   T   T   T
  0.209887510569421  0.078729134541474  0.483897030298344   T   T   T
  0.062247351866441  0.448657395240440  0.859243436253200   T   T   T
  0.801076254402482  0.761365644217194  0.307138800985304   T   T   T
  0.243369995611358  0.838690594379451  0.223790038118672   T   T   T
  0.997935806764754  0.071206588400450  0.420209991909205   T   T   T
  0.679051960033362  0.984278002537076  0.209352228675997   T   T   T
  0.913404456312677  0.661037458550664  0.697497196294869   T   T   T
  0.461762111624395  0.581825996543719  0.381355660263484   T   T   T
  0.076665470184878  0.161838921198397  0.010801596650084   T   T   T
  0.063309985595174  0.832621552465980  0.250751415221843   T   T   T
  0.864233773618506  0.980588485984788  0.009449844423635   T   T   T
  0.584698981619646  0.729876536807156  0.495132797959860   T   T   T
  0.374831340400701  0.469163564881822  0.747176802102748   T   T   T
  0.893035321873034  0.264250421531964  0.559897189666425   T   T   T
  0.029350800121920  0.508841974320588  0.718336700024291   T   T   T
  0.930581032768589  0.327721466811074  0.076920876900946   T   T   T
  0.064147365199638  0.048189051613040  0.161801158454109   T   T   T
  0.512087199643024  0.021981266331671  0.482168156240798   T   T   T
  0.173221775969949  0.559853891918872  0.453685001420648   T   T   T
  0.509790623059238  0.677577103930599  0.834438078798669   T   T   T
  0.785443600697596  0.698469703541878  0.011736838751004   T   T   T
  0.851250935789402  0.068599431761157  0.671335649957789   T   T   T
  0.927747207689824  0.712141288178472  0.136481835284030   T   T   T
  0.566125447239194  0.406450003333999  0.146800437163496   T   T   T
  0.673371776042382  0.445840696878801  0.343888459479816   T   T   T
  0.041759457228215  0.454421098700914  0.177900853223515   T   T   T
  0.471206079077016  0.874801525499533  0.593272087228075   T   T   T
  0.921014198236789  0.591555560865043  0.543920820997511   T   T   T
  0.740875419234248  0.714545742828515  0.862921970948095   T   T   T
  0.594204423052838  0.316891682018029  0.700791318952095   T   T   T
  0.582408881554756  0.280195185316775  0.495722015476130   T   T   T
  0.103051934533487  0.055836261414708  0.727607334086104   T   T   T
  0.848073721577367  0.010443327148213  0.210753997351267   T   T   T
  0.983183426226478  0.329065945342972  0.409573847821818   T   T   T
  0.700775147765406  0.084723392625535  0.834503694955237   T   T   T
  0.520455037037885  0.009115712098390  0.032370167464579   T   T   T
  0.729217408494883  0.292206590741502  0.246443173842489   T   T   T
  0.430183538438524  0.537083457749082  0.042400448486892   T   T   T
  0.121075178234675  0.662551166031155  0.802730338700267   T   T   T
  0.505542246591052  0.544231020448454  0.240270452639998   T   T   T
  0.959517346685180  0.367230065480629  0.932709577059794   T   T   T
  0.091154944556107  0.653199179624462  0.068724795984593   T   T   T
  0.879567872689444  0.406047382839817  0.292442885276530   T   T   T
  0.200911232272590  0.459028863097926  0.219836221017017   T   T   T
  0.076623344159807  0.174901250073615  0.309330494304821   T   T   T
  0.417697349755175  0.739157163844793  0.990219172673040   T   T   T
  0.980946589487766  0.946605382395541  0.560650712001860   T   T   T
  0.600737630870975  0.258085674936165  0.895005809675310   T   T   T
  0.941067046491352  0.087829978840673  0.922844304940161   T   T   T
  0.176709008269985  0.449743220427636  0.618106360768941   T   T   T
  0.655238871321941  0.601789025269797  0.296101647066868   T   T   T
  0.591981280635094  0.922274438630788  0.318867635704006   T   T   T
  0.384296748599366  0.264375240880783  0.478660900108684   T   T   T
  0.679330308275325  0.878588791781250  0.585332519254737   T   T   T
  0.375176327155408  0.955465538358172  0.249833874754591   T   T   T
  0.800896705134460  0.889429182618536  0.397100198637797   T   T   T
  0.727219117562870  0.027783405972444  0.391579579950850   T   T   T
  0.508321531236926  0.931826161487507  0.844759817312326   T   T   T
  0.879041884737970  0.301292174120241  0.793439284344938   T   T   T
  0.342692281344585  0.159866377512411  0.712588166728010   T   T   T
  0.847927959283046  0.499752249074609  0.144574548760962   T   T   T
  0.726163812038542  0.557424600290175  0.477947872993927   T   T   T
  0.717202674790002  0.320324274335194  0.586968176542887   T   T   T
  0.204818933693665  0.802035871880466  0.484784048583993   T   T   T
  0.440845797024138  0.477785103874845  0.517297252178221   T   T   T
  0.842734237872839  0.281199825721365  0.378607293839264   T   T   T
  0.252899357960084  0.655106892949292  0.667789315271724   T   T   T
  0.389678513914633  0.077522345869958  0.991819756328198   T   T   T
  0.322987221093405  0.314252841604539  0.103888331781343   T   T   T
  0.984159839726942  0.860505913622390  0.433510906058478   T   T   T
  0.633771282095883  0.823303251397907  0.845199778489873   T   T   T
  0.699642296274722  0.690130652544426  0.655376525834444   T   T   T
  0.382789451742354  0.252532190589340  0.913090754972595   T   T   T
  0.936871414410016  0.822743693479435  0.697812786145088   T   T   T
  0.268010645138556  0.209366639350984  0.381498291887002   T   T   T
  0.415226082944712  0.627642784940306  0.545111816492310   T   T   T
  0.188572973816754  0.892104654425168  0.737821570003555   T   T   T
  0.118738257619329  0.014128585025719  0.876897103446673   T   T   T
  0.487236507981362  0.363548864415919  0.383786446171521   T   T   T
  0.417393034536118  0.366735565835985  0.643797055134854   T   T   T
  0.318772175725504  0.679105160634859  0.201494990457115   T   T   T
  0.215202197215584  0.196513628980446  0.180318497037591   T   T   T
  0.575029665902277  0.334367133248543  0.300681922475570   T   T   T
  0.952114965524150  0.812080902192784  0.011950389171280   T   T   T
  0.850447102531546  0.839333224091084  0.912505360346558   T   T   T
  0.350329804469740  0.825071263854150  0.384346738347583   T   T   T
  0.341836152792689  0.362006609502535  0.318142756737681   T   T   T
  0.332248672555118  0.007542342680338  0.556519699827002   T   T   T
  0.788858913738526  0.165688663044393  0.163484243674751   T   T   T
  0.204336324713191  0.498544882345313  0.044050559309879   T   T   T
  0.588369441650133  0.097661710414034  0.314662149850081   T   T   T
  0.098868015023147  0.430000344232397  0.410339584307088   T   T   T
  0.829990137032403  0.580474105120071  0.293531828257846   T   T   T
  0.545393113498670  0.142569926916855  0.700974106478257   T   T   T
  0.624794888893516  0.452371579050930  0.587886391145690   T   T   T
  0.671027630910521  0.458385251640179  0.022710342180248   T   T   T
  0.243628617800977  0.937374154474400  0.370323476972547   F   F   F
