CH0F3                                   
   1.00000000000000     
    15.0000000000000000    0.0000000000000000    0.0000000000000000
     0.0000000000000000   15.0000000000000000    0.0000000000000000
     0.0000000000000000    0.0000000000000000   15.0000000000000000
   C    F 
     1     3
Selective dynamics
Direct
  0.5000000000000000  0.5000000000000000  0.5000000000000000   F   F   F
  0.5000000000000000  0.5000000000000000  0.5875586602605447   F   F   T
  0.4191126142887059  0.5235216633170234  0.4574359518638557   T   T   T
  0.5644751124595528  0.4556833356656045  0.4420702198352486   T   T   T
 
  0.00000000E+00  0.00000000E+00  0.00000000E+00
  0.00000000E+00  0.00000000E+00 -0.42980704E-02
  0.10233269E-01 -0.28998102E-02  0.15133276E-02
 -0.47817038E-02 -0.52936256E-02 -0.53605442E-03
 
           1
   2.00000000000000     
  0.37624139E+01 -0.10989903E-01 -0.61055583E-02  0.37709616E+01
  0.50000000E+00  0.50000000E+00  0.50000000E+00
  0.50000000E+00  0.50000000E+00  0.58698558E+00
  0.42047705E+00  0.52313502E+00  0.45763773E+00
  0.56383755E+00  0.45497752E+00  0.44199875E+00
  0.00000000E+00  0.00000000E+00  0.00000000E+00
  0.00000000E+00  0.00000000E+00  0.00000000E+00
  0.00000000E+00  0.00000000E+00  0.00000000E+00
  0.00000000E+00  0.00000000E+00  0.00000000E+00
  0.00000000E+00  0.00000000E+00  0.00000000E+00
  0.00000000E+00  0.00000000E+00  0.00000000E+00
  0.00000000E+00  0.00000000E+00  0.00000000E+00
  0.00000000E+00  0.00000000E+00  0.00000000E+00
