 edited                                 
   1.00000000000000     
    15.0000000000000000    0.0000000000000000    0.0000000000000000
     0.0000000000000000   15.0000000000000000    0.0000000000000000
     0.0000000000000000    0.0000000000000000   15.0000000000000000
   O    C 
     1     1
Direct
  0.5000000000029333  0.4999999999952922  0.5018833280509964
  0.4999999999970668  0.5000000000338115  0.5781166719490018
 
  0.00000000E+00  0.00000000E+00  0.00000000E+00
  0.00000000E+00  0.00000000E+00  0.00000000E+00
