edited
1.0
   4.5017792377414354    0.0000000000000000    0.0000000000000000
   0.0000000000000000    9.1240026393598885    0.0000000000000000
   0.0000000000000000    0.0000000000000000    8.2450395618541901
Si O
8 16
direct
   0.0919103631393234    0.3328107701415031    0.4374071425621091 Si
   0.9080896668606792    0.6671891998584943    0.9374071425621091 Si
   0.9080896668606792    0.3328107701415031    0.0625928574378909 Si
   0.0919103631393234    0.6671891998584943    0.5625928574378909 Si
   0.5919103331393208    0.8328108001415057    0.4374071425621091 Si
   0.4080896368606766    0.1671892298584968    0.9374071425621091 Si
   0.4080896368606766    0.8328108001415057    0.0625928574378909 Si
   0.5919103331393208    0.1671892298584968    0.5625928574378909 Si
   0.1167955943945709    0.2424295949159821    0.9505817492668112 O
   0.8832044056054290    0.7575704050840180    0.4505817492668112 O
   0.8832044056054290    0.2424295949159821    0.5494182507331888 O
   0.1167955943945709    0.7575704050840180    0.0494182507331888 O
   0.6167955943945710    0.7424295949159820    0.9505817492668112 O
   0.3832044056054290    0.2575704050840180    0.4505817492668112 O
   0.3832044056054290    0.7424295949159820    0.5494182507331888 O
   0.6167955943945710    0.2575704050840180    0.0494182507331888 O
  -0.0000000000000000    0.3296519368126670    0.2500000000000000 O
  -0.0000000000000000    0.6703480631873331    0.7500000000000000 O
   0.5000000000000000    0.8296519368126669    0.2500000000000000 O
   0.5000000000000000    0.1703480631873331    0.7500000000000000 O
   0.1112393051368476    0.5000000000000000    0.5000000000000000 O
   0.8887607168631471    0.5000000000000000    0.0000000000000000 O
   0.6112392831368529    0.0000000000000000    0.5000000000000000 O
   0.3887606868631518    0.0000000000000000    0.0000000000000000 O
