edited
1.0
   6.6597744971472874    0.0000000000000000    0.0000000000000000
   0.0000000000000000    7.4458542452204073    0.0000000000000000
   0.0000000000000000    0.0000000000000000    7.4458542452204073
Si O
8 16
direct
  -0.0000000000000000   -0.0000000000000000   -0.0000000000000000 Si
  -0.0000000000000000    0.5000000000000000    0.5000000000000000 Si
   0.5000000000000000    0.5000000000000000   -0.0000000000000000 Si
   0.5000000000000000   -0.0000000000000000    0.5000000000000000 Si
   0.7500000000000000    0.2500000000000000    0.7500000000000000 Si
   0.2500000000000000    0.2500000000000000    0.2500000000000000 Si
   0.2500000000000000    0.7500000000000000    0.7500000000000000 Si
   0.7500000000000000    0.7500000000000000    0.2500000000000000 Si
   0.1250000000000000    0.1250000000000000    0.1250000000000000 O
   0.8750000000000000    0.3750000000000000    0.6250000000000000 O
   0.3750000000000000    0.6250000000000000    0.8750000000000000 O
   0.6250000000000000    0.8750000000000000    0.3750000000000000 O
   0.3750000000000000    0.8750000000000000    0.6250000000000000 O
   0.8750000000000000    0.6250000000000000    0.3750000000000000 O
   0.6250000000000000    0.3750000000000000    0.8750000000000000 O
   0.1250000000000000    0.6250000000000000    0.6250000000000000 O
   0.8750000000000000    0.8750000000000000    0.1250000000000000 O
   0.3750000000000000    0.1250000000000000    0.3750000000000000 O
   0.3750000000000000    0.3750000000000000    0.1250000000000000 O
   0.8750000000000000    0.1250000000000000    0.8750000000000000 O
   0.6250000000000000    0.1250000000000000    0.6250000000000000 O
   0.1250000000000000    0.8750000000000000    0.8750000000000000 O
   0.1250000000000000    0.3750000000000000    0.3750000000000000 O
   0.6250000000000000    0.6250000000000000    0.1250000000000000 O
