C  F  H 
 1.0000000000000000
    11.3854154780000005    0.0000000000000000    0.0000000000000000
     0.0000000000000000   11.3854154780000005    0.0000000000000000
     0.0000000000000000    0.0000000000000000    7.5902769850000000
 C   F   H  
  97  38   9
Cartesian
  7.4433800000000003  1.5729400000000000  7.2006600000000001
 11.1362500000000004  2.5843500000000001  4.4154999999999998
  0.1575800000000000  5.0880099999999997  3.8530700000000002
  7.3203300000000002  5.3649300000000002  1.3151400000000000
  6.9221800000000000  4.2312599999999998  6.9752299999999998
  2.5301200000000001  3.8004699999999998  7.5901899999999998
  5.4072600000000000  2.6380599999999998  4.0807599999999997
  7.5327900000000003 10.9627599999999994  1.2650200000000000
  4.4634400000000003  2.0617500000000000  1.3065400000000000
  2.2346699999999999  4.3828800000000001  3.3974899999999999
  0.2271000000000000  8.4947599999999994  2.1065800000000001
  0.8268400000000000  7.9931999999999999  3.3463400000000001
  7.4964500000000003  4.4520999999999997  2.2984599999999999
  2.8509099999999998 10.2722999999999995  5.1410799999999997
  1.8750800000000001  6.9125600000000000  3.0763099999999999
  0.4132700000000000  3.6943800000000002  4.3389100000000003
  4.0593500000000002  6.1129400000000000  3.7285499999999998
  2.2233299999999998  0.0768500000000000  5.9950900000000003
  6.6471099999999996  7.5389699999999999  5.6013099999999998
  5.2289899999999996  2.3868499999999999  6.6595599999999999
  0.4109000000000000  1.4564900000000001  6.6094400000000002
 11.2177199999999999  8.2104700000000008  4.5327500000000001
  2.3350900000000001  1.2312500000000000  2.2532199999999998
  0.0279400000000000 11.2576199999999993  1.9224000000000001
  0.3875100000000000  1.4729000000000001  4.9468899999999998
  8.9880099999999992  9.0733999999999995  4.5789900000000001
  6.2763900000000001  2.0825100000000001  0.1488900000000000
  4.5910099999999998  4.9207799999999997  4.4066999999999998
  2.6623899999999998  2.3877999999999999  5.0606799999999996
  7.7694999999999999  9.3924699999999994  3.9358300000000002
  1.8183499999999999  3.5547300000000002  4.6008899999999997
  9.4096100000000007  0.9407100000000000  4.5253899999999998
  1.4508799999999999  5.4533399999999999  3.2922600000000002
  2.0155400000000001  0.8110000000000001  0.7478200000000000
  3.1213600000000001  0.4588200000000000  7.2779900000000000
  8.0188500000000005  2.2644899999999999  6.2274200000000004
 11.2051499999999997 10.5172500000000007  4.1735499999999996
  0.2585500000000000  7.7889699999999999  0.8455200000000000
  6.7534500000000000  7.2223300000000004  2.9126400000000001
  8.5106599999999997  3.4399000000000002  2.3146499999999999
  5.3395999999999999 10.8361199999999993  2.5225399999999998
  7.8281200000000002  3.8569200000000001  4.5157699999999998
  8.7929999999999993  3.2505400000000000  3.7420599999999999
 11.3025800000000007 10.7449300000000001  5.6182299999999996
 10.7616399999999999  5.8581500000000002  4.9663100000000000
  2.7670400000000002  2.5983900000000002  6.7076300000000000
  9.3040500000000002  1.8251200000000001  5.7323700000000004
  6.8673200000000003  8.6731400000000001  3.2296299999999998
  5.8310100000000000  3.5508500000000001  0.1457900000000000
  6.8053400000000002  6.6759899999999996  1.5460700000000001
  4.2101199999999999  0.0798000000000000  2.9762900000000001
  3.4072700000000000  5.8287100000000001  1.3793899999999999
  3.1695799999999998 10.6498100000000004  3.5608300000000002
  3.8650500000000001  2.5530200000000001  3.7854600000000000
  6.1527200000000004  0.1848900000000000  1.6489000000000000
 10.3233200000000007  1.8065400000000000  6.7810600000000001
  1.3482600000000000  9.3145900000000008  2.7692700000000001
  3.5953800000000000  4.0061200000000001  3.3865300000000000
  1.4509099999999999  2.0791800000000000  7.4527299999999999
  4.7226699999999999  3.7263199999999999  1.1315700000000000
  7.4634900000000002  6.2219199999999999  3.7791600000000001
 10.2068700000000003  7.1540699999999999  4.7605500000000003
 10.3040500000000002  9.1306300000000000  2.4277500000000001
  2.7474300000000000  9.4088499999999993  2.7279599999999999
  5.6409500000000001  4.1980300000000002  3.6527699999999999
  7.7759000000000000  5.0788599999999997  0.0495400000000000
  8.9938900000000004  7.6417700000000002  4.9012099999999998
  8.7617899999999995 11.1911799999999992  2.2738200000000002
  4.4682100000000000  5.9317700000000002  2.3710300000000002
  7.0224299999999999  4.7262899999999997  3.6925400000000002
  5.8438299999999996  2.6832600000000002  5.4221800000000000
  1.6746900000000000  7.3092800000000002  0.5783000000000000
  4.7553200000000002  4.4272600000000004  2.4888800000000000
  5.5916300000000003  9.3861299999999996  2.9285899999999998
  2.9892500000000002  6.8457499999999998  4.1363599999999998
 10.3069900000000008  9.3063099999999999  3.9312900000000002
  1.0055200000000000 11.1447199999999995  0.5791400000000000
  1.8147000000000000  1.0951200000000001  4.7306900000000001
  5.4940300000000004  7.0237200000000000  2.0703700000000000
  8.5871099999999991  0.4699400000000000  3.5074900000000002
  9.7105899999999998  2.4013399999999998  4.3994600000000004
  3.7561700000000000  1.5656699999999999  2.5750799999999998
  1.3885799999999999  3.3136100000000002  0.4990000000000000
  3.8887800000000001  1.8461200000000000  7.2968400000000004
  2.6237400000000002  7.0999499999999998  1.7379100000000001
  0.7651800000000000  0.0149300000000000  6.6780499999999998
  3.4345300000000001  8.4168699999999994  2.0779999999999998
 10.6973099999999999  0.3700100000000000  4.7900299999999998
  7.5061099999999996  0.1227600000000000  7.3791099999999998
  5.6949500000000004  1.3372599999999999  1.1338299999999999
  4.8548000000000000  8.4707299999999996  1.8804900000000000
 10.0145900000000001 10.5473499999999998  1.7873300000000001
  3.4150100000000001  4.6356099999999998  0.7468800000000000
  0.8632600000000000 10.6784099999999995  3.0586400000000000
  7.1506699999999999  3.4330500000000002  5.7417800000000003
  7.7253900000000000  6.9483400000000000  5.0205799999999998
  1.9227500000000000  0.2705200000000000  3.4142299999999999
  7.3866899999999998  0.9965600000000000  3.6660499999999998
  5.0968400000000003  9.0442199999999993  0.5901300000000000
  7.8953199999999999  2.2103600000000001  1.8095900000000000
  8.6736500000000003  6.2482600000000001  3.0564399999999998
  4.8225199999999999  0.3905200000000000  5.1558000000000002
 10.4616900000000008  9.9154599999999995  6.1154900000000003
 10.6749700000000001  4.9870400000000004  2.7527900000000001
  0.2422800000000000  5.9408899999999996  6.0096900000000000
  3.8656400000000000 10.8391999999999999  0.1763500000000000
  9.2324300000000008  8.2401000000000000  2.0824699999999998
  1.8738800000000000  9.2893399999999993  5.1095899999999999
  5.4001400000000004  7.1705500000000004  5.2576400000000003
  2.4079400000000000  7.9429299999999996  7.2684699999999998
  2.6557800000000000  6.9652099999999999  5.4204800000000004
  7.3401300000000003  9.5899900000000002  1.0822300000000000
  8.8745499999999993  5.7351200000000002  7.3485500000000004
  6.2607400000000002 10.9102899999999998  6.8756300000000001
  3.8197700000000001  9.6141500000000004  5.9066700000000001
  9.4973600000000005  3.4819200000000001  1.3971800000000001
  4.9555400000000001  9.2226800000000004  4.1557899999999997
 11.2228399999999997  8.2619600000000002  7.2030900000000004
  6.9719300000000004 10.3636499999999998  4.5843499999999997
  0.7578700000000000  3.5323000000000002  1.6302500000000000
  9.0640900000000002  8.2352600000000002  7.0876000000000001
  8.4032199999999992 10.9609699999999997  6.6114699999999997
  7.1818999999999997  7.4346899999999998  0.4714200000000000
  4.5531100000000002  4.9108400000000003  5.8025900000000004
  9.8289500000000007 10.1712500000000006  0.4809500000000000
  9.7001000000000008  5.0468999999999999  5.2744200000000001
 10.9482400000000002  6.5344300000000004  1.0439400000000001
  9.9279600000000006  1.0581700000000001  0.3914300000000000
 10.8803199999999993  4.3031699999999997  7.3858300000000003
  1.4906999999999999  6.0320299999999998  0.1004700000000000
 11.1533200000000008  1.2160299999999999  2.2310300000000001
  1.6614899999999999  9.8866300000000003  0.4372100000000000
  6.5255999999999998  8.6097099999999998  6.3762400000000001
  4.5976200000000000  6.6626500000000002  7.2227300000000003
  2.1323099999999999  4.6015400000000000  5.6837299999999997
 10.3334799999999998  2.7740000000000000  7.2230499999999997
  5.4359599999999997 11.3102000000000000  5.7992900000000001
  8.9177300000000006  9.5999700000000008  5.5416900000000000
 10.9114500000000003  5.2990899999999996  7.3471299999999999
  5.8995199999999999  1.9802500000000001  3.4251900000000002
  8.4036000000000008  8.3163999999999998  0.1783100000000000
  4.2246800000000002  7.4775099999999997  6.8092199999999998
  0.2246400000000000  8.3909500000000001  5.4939299999999998
  1.6466900000000000  2.1255199999999999  2.3056500000000000
