 C  O 
 1.0000000000000000
    15.0000000000000000    0.0000000000000000    0.0000000000000000
     0.0000000000000000   15.0000000000000000    0.0000000000000000
     0.0000000000000000    0.0000000000000000   15.0000000000000000
 C   O  
   1   2
Selective dynamics
Cartesian
  7.5000000000000000  7.5000000000000000  7.5000000000000000   F   F   F
  8.3712599999999995  7.1197999999999997  8.1836599999999997   T   T   T
  6.5897800000000002  8.0101499999999994  6.9211000000000000   T   T   T
