Si O  C  H  F 
 1.0000000000000000
    13.0458839999999991    0.0000000000000000    0.0000000000000000
     0.0000000000000000   13.0458839999999991    0.0000000000000000
     0.0000000000000000    0.0000000000000000   13.0458839999999991
 Si  O   C   H   F  
   8  64   8   8   8
Cartesian
  1.0246800000000000  9.7583800000000007 12.3498900000000003
  4.3100899999999998  5.2993800000000002 12.6665700000000001
  4.1617199999999999  2.3113500000000000 12.8600600000000007
  6.5453900000000003  7.1183500000000004 11.4620400000000000
  3.0206200000000001  3.7248800000000002 10.4615799999999997
 11.1910200000000000  9.0439000000000007 11.5505200000000006
  2.8003200000000001  7.7827799999999998  1.0295399999999999
  8.5072799999999997  8.7273399999999999  0.2672900000000000
 12.1948299999999996  4.4956399999999999  5.1095100000000002
  7.4263700000000004  7.7003000000000004 12.7218000000000000
 12.4447500000000009  5.3881600000000001 11.3762500000000006
  2.2023199999999998  8.8673300000000008 12.9633599999999998
  4.2012099999999997 11.9848599999999994 10.9935200000000002
  8.5227799999999991  5.1393599999999999  4.0746300000000000
  0.6459600000000000  9.5407899999999994  7.2076799999999999
 11.7920400000000001 11.4032800000000005  3.4962800000000001
  8.9682999999999993  0.4042600000000000  6.5953400000000002
  6.6369899999999999  5.0331400000000004  5.1089900000000004
  3.3237199999999998  2.4125800000000002 11.4804300000000001
  8.7011800000000008  3.0545599999999999  3.7829999999999999
 12.5046499999999998  9.0763700000000007  7.2607100000000004
  3.9707100000000000  8.6945899999999998  1.6279999999999999
 12.8415800000000004  7.3424699999999996  7.1570799999999997
  4.5453099999999997  8.2583900000000003  4.3872099999999996
  4.6914699999999998  7.6048000000000000  6.6207900000000004
  0.3833900000000000  8.2389500000000009  2.1511499999999999
  0.1842700000000000  4.3742200000000002  2.5012900000000000
  3.3677999999999999  1.3266899999999999  0.8431500000000000
 12.9647199999999998  1.9792900000000000  2.2140200000000001
  2.0155099999999999  0.1134400000000000  4.4332200000000004
  3.4355199999999999  5.1095300000000003 11.2195199999999993
 12.4685799999999993  7.7953999999999999  2.9215800000000001
 10.8252799999999993 12.5358300000000007  6.9893299999999998
 10.3144700000000000 11.5393299999999996  6.3476900000000001
  2.6305499999999999 12.5565099999999994  3.4459700000000000
  3.6999800000000000  3.4248599999999998  9.0546500000000005
 10.5945800000000006  4.6154999999999999 10.1768900000000002
  5.7720399999999996  5.9538900000000003 12.2661999999999995
  0.7501200000000000  9.5040399999999998  4.1392400000000000
  5.9706900000000003 11.1779700000000002  5.5699100000000001
  4.0605300000000000  0.8474000000000000  3.3433400000000000
  1.7032099999999999  7.1560499999999996  2.1010700000000000
  7.5064299999999999  6.3572300000000004 10.4377499999999994
  8.0205400000000004 10.3083100000000005  0.2957800000000000
  1.9934000000000001  3.2987899999999999  4.9667599999999998
 10.2345500000000005  3.0450300000000001 12.7992000000000008
  6.0326500000000003 12.1674900000000008  7.8109200000000003
  1.4201800000000000 10.6250199999999992 11.0593699999999995
 11.5110200000000003 12.3197799999999997  1.3071299999999999
 11.7431800000000006  4.6198600000000001  6.8702300000000003
 12.7741100000000003  8.6297599999999992  4.4762599999999999
  6.1332500000000003  2.9434300000000002  3.8190100000000000
  7.8416100000000002  5.2798600000000002  2.9755099999999999
  0.6993700000000000  2.2837200000000002  5.9363500000000000
  3.5633800000000000  6.3836300000000001  0.6181000000000000
 10.4391099999999994  4.5097199999999997  6.7023700000000002
  5.9594500000000004  5.2176700000000000  3.9897499999999999
  1.0781799999999999  7.4494100000000003  7.0292000000000003
 12.7530000000000001  8.7609300000000001 12.1275999999999993
  9.9664400000000004  8.6865900000000007 12.5980699999999999
  3.7360199999999999  1.4500400000000000  4.4580000000000002
  9.5505600000000008  9.0050899999999992  5.6769499999999997
 11.0530700000000000  4.7566199999999998  4.5349000000000004
  4.4243100000000002  3.8588399999999998  0.4062700000000000
  2.4007499999999999  4.1120299999999999  5.9987300000000001
  6.4766000000000004 11.5490200000000005 11.7410700000000006
  6.7988400000000002  2.9665300000000001  4.8848000000000003
  8.7238699999999998 12.4912200000000002  5.7196999999999996
  8.7190399999999997  7.9940499999999997  7.6183399999999999
  0.7214200000000000  2.9270800000000001  7.0384399999999996
  8.8888599999999993  1.8022000000000000 11.2358499999999992
  8.0460600000000007  3.1753999999999998  2.6492800000000001
  5.3689200000000001 11.7490100000000002 11.2827400000000004
  9.1024200000000004  8.4717000000000002  6.6088300000000002
  4.6237700000000004  8.0119199999999999  5.5083799999999998
  9.5777999999999999  2.3567600000000000 12.0568899999999992
  5.9736599999999997 11.6487499999999997  6.7165200000000000
 11.4746000000000006  5.0688500000000003 10.8096499999999995
 11.6934900000000006 11.8436000000000003  2.3673199999999999
  0.0717800000000000  3.1771600000000002  2.4129800000000001
  7.9859900000000001  6.6202100000000002  9.6247199999999999
  4.4319199999999999  2.7203700000000000  8.9556500000000003
  4.3250400000000004  9.9969099999999997  1.3458800000000000
  2.4112499999999999 10.5718200000000007 11.0494500000000002
  0.3038700000000000 10.4130599999999998  3.8603399999999999
  4.4784300000000004  8.3059200000000004  2.3568500000000001
  7.5404499999999999 10.9334699999999998 12.7753800000000002
  3.8247499999999999  0.3687200000000000  0.9459800000000000
  0.5262600000000000 10.8099399999999992  0.4298300000000000
  1.4237899999999999  3.9578300000000000 10.2418399999999998
 11.0536899999999996 10.5281699999999994 10.9870800000000006
  5.5682900000000002  8.2073699999999992 10.7824600000000004
  5.6246400000000003  1.5043400000000000 12.5894499999999994
  8.7628000000000004  8.2830399999999997  1.7328300000000001
  4.5988300000000004 10.8918599999999994  0.9075500000000000
 11.0168900000000001  8.3273799999999998 10.1684900000000003
