edited
1.0
   4.4656385506947407    0.0000000000004007    0.0000000000000000
  -2.2328192753914693    4.3238359342485833    0.0000000000000000
   0.0000000000000000    0.0000000000000000    5.4930772026742218
Si O
3 6
direct
   0.5261311103537167    0.5261311103537167    0.0000000000000000 Si
   0.4738689186462821    0.0000000000000000    0.6666666870000029 Si
   0.0000000000000000    0.4738689186462821    0.3333333429999996 Si
   0.5862863665280429    0.8465146456408661    0.8754921398431037 O
   0.1534853393591362    0.7397716608871789    0.5421588258431029 O
   0.2602283091128186    0.4137136634719525    0.2088254828431033 O
   0.8465146456408661    0.5862863665280429    0.1245078451568986 O
   0.7397716608871789    0.1534853393591362    0.4578411741568971 O
   0.4137136634719525    0.2602283091128186    0.7911744871568942 O
