C  F  H 
 1.0000000000000000
    13.1248464580000004    0.0000000000000000    0.0000000000000000
     0.0000000000000000   13.1248464580000004    0.0000000000000000
     0.0000000000000000    0.0000000000000000    8.7498976390000003
 C   F   H  
  67  67  10
Cartesian
  8.1939700000000002 10.8346999999999998  4.2054200000000002
  0.2577600000000000  1.1839100000000000  0.3317000000000000
  5.5341600000000000  1.3376600000000001  3.7173699999999998
 12.0286500000000007  8.5549999999999997  7.6326099999999997
  8.9637399999999996  7.1252899999999997  6.5199699999999998
 10.5557900000000000  2.6760299999999999  3.9800100000000000
 10.0547500000000003 13.1098499999999998  8.6247100000000003
  5.3325399999999998  2.5558000000000001  8.4002700000000008
  3.1463600000000000  3.1937199999999999  2.5976499999999998
  6.0403799999999999  1.3441300000000000  8.6914499999999997
  4.3682400000000001  7.7220800000000001  5.3832899999999997
  4.5500400000000001 10.6567399999999992  1.6227600000000000
 11.3402700000000003  1.5397600000000000  3.9535499999999999
  3.2233999999999998  6.3237399999999999  1.6539100000000000
 10.2251399999999997  7.4220899999999999  6.1196700000000002
  8.7856100000000001  9.6757899999999992  0.9940400000000000
  4.7279799999999996  6.4506800000000002  5.6829799999999997
  7.9877399999999996  7.4818100000000003  5.6560199999999998
  6.7503900000000003  0.5484300000000000  7.6734900000000001
 12.4205100000000002  5.3564699999999998  0.1109500000000000
  2.1094499999999998  3.4950999999999999  3.2049500000000002
 12.6231100000000005 10.8999299999999995  7.4737000000000000
 12.6821900000000003  1.9717100000000001  3.8864399999999999
  6.9500900000000003  8.8341300000000000  3.7559999999999998
  5.5142800000000003 10.1326400000000003  2.4365999999999999
  4.5001600000000002  8.5581899999999997  4.1548400000000001
 10.7092600000000004  7.1999199999999997  4.8369499999999999
  5.9670300000000003  1.0048500000000000  1.2806700000000000
  9.2185000000000006  2.6294100000000000  4.0282499999999999
  6.7261899999999999  2.2750100000000000  4.0000600000000004
 10.0918600000000005  0.1315300000000000  7.0951100000000000
 12.4887899999999998 12.2886900000000008  8.0250599999999999
  7.4003600000000000  7.9859499999999999  4.6802200000000003
  3.8975399999999998 10.0354100000000006  6.4573900000000002
  3.9361400000000000  6.7224300000000001  7.9856100000000003
  3.7493400000000001  8.0982800000000008  7.7930400000000004
  0.4125400000000000 12.8562499999999993  8.6374300000000002
 11.4040800000000004  3.9437500000000001  4.0944500000000001
  7.4663399999999998 10.2374100000000006  0.7806400000000000
 13.0300100000000008 10.9544499999999996  6.1788900000000000
  0.9453600000000000  4.0435699999999999  3.7552400000000001
  4.6510400000000001  3.3554599999999999  0.6625100000000000
  8.0377500000000008  2.1401800000000000  3.9565700000000001
  3.9032800000000001  8.5534400000000002  6.4728700000000003
  2.0178199999999999 11.0532699999999995  4.9882400000000002
  1.9731700000000001 11.9427500000000002  3.9790999999999999
 12.5081600000000002  9.7118699999999993  8.4123500000000000
  3.2538999999999998 10.9899900000000006  5.7637799999999997
  1.2847700000000000  5.2975099999999999  4.5299600000000000
  5.2341899999999999  3.3620399999999999  7.2485200000000001
  5.1638400000000004  1.6821299999999999  2.2507299999999999
 11.2651699999999995  7.9450599999999998  6.9150400000000003
  3.8716200000000001  5.8995100000000003  0.4194800000000000
 12.1070499999999992  1.5346400000000000  8.1443399999999997
  4.2882699999999998  2.7260200000000001  1.8956299999999999
  6.8220999999999998 10.3987700000000007  2.0505399999999998
  0.8181600000000000 10.1369500000000006  5.3327999999999998
  4.7065900000000003  4.6174299999999997  7.4544199999999998
  4.4189200000000000  5.9543200000000001  6.9199999999999999
  8.9387600000000003  9.4703099999999996  2.3191000000000002
 11.3750599999999995  0.1385400000000000  7.9130799999999999
 12.8183600000000002  3.3991500000000001  4.0276199999999998
  4.3913099999999998  4.6639799999999996  0.1280500000000000
  0.8788700000000000  9.1807099999999995  0.2267200000000000
  7.7918500000000002  9.9397099999999998  3.0617200000000002
  5.5193800000000000  9.1840200000000003  3.5642299999999998
  8.3786000000000005  4.3401199999999998  8.4448299999999996
  1.0525700000000000 12.0834799999999998  3.0565699999999998
  4.8221900000000000 10.4585600000000003  7.4469700000000003
  6.4991899999999996  7.7527799999999996  7.4815800000000001
  2.5094200000000000  5.2515999999999998  5.0968700000000000
  6.8255299999999997  0.0892700000000000  1.7123900000000001
  0.6255300000000000  1.1314800000000000  3.8176299999999999
  3.3989199999999999  0.4764200000000000  8.7220800000000001
  9.2252399999999994 10.3162199999999995  4.9900599999999997
  1.8056200000000000  9.9711400000000001  8.3880300000000005
  1.9165800000000000  5.7008799999999997  1.5696500000000000
  5.8673500000000001  2.9778199999999999  6.0662099999999999
 11.7360399999999991 10.0277100000000008  0.7432400000000000
 11.8886800000000008  7.7137599999999997  4.4016999999999999
  5.7384599999999999 13.0700400000000005  6.8523100000000001
  9.4557800000000007  9.1961600000000008  8.7195000000000000
  4.8929400000000003 11.6266499999999997  0.7542200000000000
 13.0789600000000004  1.0381600000000000  1.6772100000000001
  9.5853199999999994  0.6879500000000000  0.8813900000000000
  1.5669500000000001 12.2026500000000002  0.2531700000000000
  1.1148800000000001  7.8688700000000003  8.6185899999999993
  6.4594100000000001  3.6527200000000000  3.9546899999999998
 11.1803799999999995  4.4614500000000001  5.4369199999999998
  3.7130700000000001 12.2726699999999997  6.0357300000000000
  0.0915500000000000  9.8713999999999995  4.1394000000000002
 11.9914199999999997  6.5850700000000000  0.5960800000000001
 11.0401399999999992 11.3793799999999994  2.6305000000000001
  6.7272600000000002  5.9583199999999996  2.7004800000000002
  1.3181400000000001  2.1274700000000002  0.2738900000000000
  9.9512000000000000  8.8838600000000003  2.9190999999999998
  1.3144499999999999  9.0421700000000005  5.9526100000000000
  7.5488799999999996 12.7156099999999999  8.0147700000000004
  5.5448500000000003  5.7430399999999997  4.8473199999999999
 12.5620300000000000  2.1772399999999998  7.0241600000000002
  7.0875399999999997 11.2179199999999994  4.9576900000000004
  5.8139099999999999  0.0832500000000000  3.9219499999999998
  7.1440400000000004  4.9549700000000003  0.0402100000000000
  8.3070400000000006  3.1165900000000000  0.2571300000000000
  1.2101100000000000  6.4788500000000004  3.7619300000000000
  3.1811600000000002  9.0087399999999995  3.9167500000000000
  0.3722200000000000  5.4823800000000000  8.1362900000000007
  9.8816900000000008  1.3001400000000001  6.4936600000000002
  8.4757499999999997  4.5961400000000001  2.3834200000000001
  1.8372700000000000  0.8074400000000000  6.5903400000000003
  4.3908800000000001  1.5765199999999999  4.5840199999999998
 12.6828699999999994 12.1151199999999992  5.5526299999999997
  2.9114300000000002 12.8970599999999997  3.7468200000000000
  7.4664999999999999  1.3038700000000001  6.7924499999999997
  1.8735299999999999  3.3906100000000001  6.4236100000000000
  3.2284000000000002 10.6765299999999996  1.7154799999999999
  6.8964299999999996 10.0687300000000004  8.3460199999999993
  8.7588600000000003  6.7993600000000001  7.7960700000000003
  0.9574300000000000  9.1141900000000007  1.6039200000000000
  3.8015900000000000  5.9871999999999996  2.8507899999999999
  9.8197200000000002  6.7165600000000003  3.9393899999999999
  9.8519500000000004 12.1930700000000005  6.3193700000000002
 10.8114500000000007  0.2996600000000000  4.1794700000000002
  9.7106200000000005 11.7750100000000000  0.0963600000000000
 11.3587600000000002  2.4452699999999998  0.1073700000000000
  0.3930600000000000  5.5024400000000000  5.5331099999999998
 12.5685000000000002  4.6800400000000000  1.2645100000000000
  6.4198399999999998  7.6731699999999998  1.2041599999999999
  9.5587199999999992  6.5674799999999998  1.2848200000000001
 11.4557400000000005  4.7635800000000001  8.0415799999999997
 11.2644699999999993  4.8844700000000003  3.1804999999999999
  8.7322900000000008 11.9861900000000006  3.7013799999999999
  2.9818199999999999  7.6880300000000004  1.6238100000000000
  8.3254699999999993  4.1666699999999999  7.0881499999999997
  1.9565999999999999  1.7512700000000001  6.3252400000000000
  7.5283400000000000  5.2847900000000001  2.5072299999999998
  3.1844800000000002  8.6921599999999994  8.4751499999999993
  9.1244200000000006  4.9873700000000003  0.0931500000000000
  6.5600199999999997  7.5944399999999996  8.5324500000000008
  2.1557700000000000  4.0160499999999999  7.1683100000000000
  3.0722000000000000  0.5207300000000000  7.8374499999999996
  9.0476500000000009  5.7893499999999998  1.6719299999999999
 11.7694399999999995 10.7979199999999995  2.8618800000000002
  6.5400999999999998  6.8240900000000000  2.0296099999999999
