C  F 
 1.0000000000000000
    11.6206873749999993    0.0000000000000000    0.0000000000000000
     0.0000000000000000   11.6206873749999993    0.0000000000000000
     0.0000000000000000    0.0000000000000000    7.7471249159999998
 C   F  
 103  41
Cartesian
  2.2847100000000000 10.3523499999999995  3.2373900000000000
  9.2586200000000005  7.9447700000000001  3.2335799999999999
  2.3732400000000000  6.9237299999999999  3.8474400000000002
  0.9855100000000000  2.8580999999999999  1.9967299999999999
  4.1572100000000001  0.9529700000000000  6.6688900000000002
  5.7914300000000001  8.5817700000000006  5.6443500000000002
 10.1017200000000003  8.2624499999999994  4.4064199999999998
  9.2332999999999998  5.6042899999999998  5.2684100000000003
  9.5899099999999997  4.8425000000000002  0.2957600000000000
  2.4702700000000002 10.3644499999999997  1.7642599999999999
 10.9863499999999998  1.4483600000000001  0.9245300000000000
 11.4483800000000002  4.7949500000000000  4.9447200000000002
  3.2697600000000002  8.0434599999999996  2.1140500000000002
  8.6124399999999994 11.0833399999999997  4.8905399999999997
  8.7855799999999995 11.3064099999999996  6.3456700000000001
  1.2321700000000000  6.6145899999999997  0.0830300000000000
  4.9092099999999999  9.6480200000000007  1.3751700000000000
  7.1638000000000002  2.9433500000000001  5.8974599999999997
  7.0934299999999997  6.3147700000000002  6.1997099999999996
  7.9761800000000003  7.2736200000000002  0.6418400000000000
  9.2607599999999994 10.3371499999999994  2.4407399999999999
  1.5871700000000000 11.5569199999999999  3.8616400000000000
 11.5514299999999999 10.6088299999999993  5.3109200000000003
  4.6426600000000002 11.1615500000000001  6.8948299999999998
  0.7958800000000000  4.1417299999999999  5.7702799999999996
 10.5392200000000003  1.1167499999999999  5.7151199999999998
  0.0772200000000000  9.0598600000000005  0.7637400000000000
  0.1524900000000000  5.4399499999999996  0.0773800000000000
  2.3028499999999998  6.0234699999999997  6.9402499999999998
  0.6721200000000001  4.3138300000000003  2.6382400000000001
  8.1809300000000000 10.2925599999999999  7.2444199999999999
  3.1255099999999998  3.5758999999999999  6.5035299999999996
  7.2235100000000001  7.3803999999999998  7.1830499999999997
  3.5949399999999998  9.2655899999999995  1.5529800000000000
  6.1607200000000004  7.7914700000000003  4.5647200000000003
  8.8659900000000000  5.5388099999999998  3.7812199999999998
  2.1752500000000001  7.9386700000000001  3.0089999999999999
 10.8775899999999996  0.2055200000000000  4.5137799999999997
  7.8378100000000002  4.0077600000000002  5.0945799999999997
  5.3120399999999997  4.1874000000000002  1.9320400000000000
  7.2334800000000001  9.4179999999999993  1.3920999999999999
  7.6253399999999996  4.6714200000000003  3.7578600000000000
  5.9124600000000003  8.8408499999999997  1.9349000000000001
  5.9519900000000003  7.8560499999999998  3.0412699999999999
  2.5917599999999998  1.0381600000000000  6.7055600000000002
  2.1033499999999998  4.6005000000000003  6.5585899999999997
  9.7743800000000007  0.4397300000000000  6.8271499999999996
  2.2930000000000001  2.3251400000000002  6.1064400000000001
  7.8788400000000003  3.1408800000000001  7.3109900000000003
 11.4062000000000001  2.2729200000000001  7.7279400000000003
  5.6345900000000002  1.7538600000000000  4.5729800000000003
  5.9723400000000000  5.4665699999999999  1.5629999999999999
  6.1365800000000004  6.4695700000000000  2.6687500000000002
 11.6055899999999994 10.7511799999999997  2.2016100000000001
  6.1744800000000000  3.2944499999999999  2.4758599999999999
  1.4700899999999999  9.0870400000000000  3.5351800000000000
  7.7827500000000001 10.4004600000000007  2.3662399999999999
  6.4753400000000001  5.6656199999999997  3.8427300000000000
  8.7170100000000001  6.7401000000000000  2.8884300000000001
  6.7176600000000004  6.5871899999999997  4.9260099999999998
  6.4849199999999998  8.5850500000000007  6.8570200000000003
  3.4485299999999999  2.7742300000000002  5.2309400000000004
  0.9211800000000000  2.6420400000000002  5.5941900000000002
 10.1600500000000000  4.6662600000000003  1.6160500000000000
  4.5193399999999997  1.7872900000000000  5.3808299999999996
  6.7661100000000003  9.8488399999999992  7.7209300000000001
  7.7633000000000001  0.5177700000000000  4.2375600000000002
 11.6197199999999992  9.4371600000000004  3.0279300000000000
  0.8912800000000000 10.9000800000000009  7.3195399999999999
  9.1292399999999994  9.4449400000000008  7.6117400000000002
 10.3412900000000008 10.8135800000000000  1.3606000000000000
  7.5214499999999997  5.0646199999999997  1.3743700000000001
 10.4916300000000007  5.4969799999999998  5.7061700000000002
  5.5586099999999998 10.6681100000000004  0.3689900000000000
  1.2799900000000000 11.1143900000000002  5.1933199999999999
  9.5090900000000005  8.7985000000000007  2.1300300000000001
 11.3065700000000007 10.4573099999999997  6.8260800000000001
 10.5085999999999995  5.3460099999999997  7.1784800000000004
  3.5342899999999999  6.4894800000000004  6.8352800000000000
  0.5229100000000000  3.3564699999999998  0.5953500000000000
  6.9542099999999998  1.5155000000000001  5.2702900000000001
 11.5456500000000002  4.6113999999999997  1.3305300000000000
  0.2204300000000000  0.3742100000000000  3.2656800000000001
  1.7685100000000000 11.4668200000000002  6.3763100000000001
 11.2750699999999995  4.7188200000000000  3.6014300000000001
 11.0460200000000004  8.5974400000000006  2.0134599999999998
  9.9870500000000000  4.9825299999999997  2.9515300000000000
  8.5168199999999992  8.5793199999999992  1.0327900000000001
  8.1726799999999997  4.5781099999999997  7.6405099999999999
  7.5088900000000001  3.9728100000000000  2.4608500000000002
 10.7401700000000009  9.6475299999999997  4.2695699999999999
 10.5241399999999992  9.8289500000000007  0.1187100000000000
  9.7173200000000008 10.7796000000000003  3.9259200000000001
  1.0872200000000001 10.3523999999999994  1.0107200000000001
  5.5972499999999998  2.2380100000000001  3.2435499999999999
  8.0629600000000003  6.3882899999999996  1.6355999999999999
  7.0921500000000002 11.2265200000000007  3.1571099999999999
  7.9839300000000000  5.1589000000000000  6.1299999999999999
 11.4527500000000000  1.9508600000000000  6.2730499999999996
 11.5738699999999994  1.7330700000000001  2.3336299999999999
 10.0183300000000006  0.4275300000000000  0.6388800000000000
  0.8816400000000000  4.3025599999999997  7.2478499999999997
  0.8292100000000000  8.0064399999999996  7.5868500000000001
  7.6999000000000004  9.8915199999999999  4.9560399999999998
  9.4279899999999994  8.1569000000000003  5.5974800000000000
  3.3312599999999999  3.4567500000000000  4.1087300000000004
  3.5430700000000002 10.2694600000000005  3.8119100000000001
  5.4389799999999999  4.7480799999999999  4.2918099999999999
  4.1368900000000002  7.5751299999999997  7.3330700000000002
  8.5579300000000007  3.0729600000000001  2.1248399999999998
  5.4191599999999998 10.7931399999999993  5.7519200000000001
  2.2858200000000002  2.5890900000000001  2.2164299999999999
  9.0749200000000005  2.5132200000000000  7.1776700000000000
  1.4762599999999999  8.8515300000000003  4.9256000000000002
  0.7983900000000000  2.4305599999999998  4.2442700000000002
  4.5099499999999999  1.5904499999999999  2.6263700000000001
  3.5480700000000001 10.3132400000000004  6.8707200000000004
  2.0789599999999999  1.3717299999999999  0.2759200000000000
 10.4514800000000001  2.3982399999999999  3.0085099999999998
  9.0789799999999996  3.2367599999999999  5.0984400000000001
 11.1202900000000007  7.3033700000000001  4.4093600000000004
  3.4318900000000001  6.0932899999999997  3.9375599999999999
  8.4801199999999994  1.4650700000000001  3.4370799999999999
  8.7470599999999994  0.7565499999999999  1.2380800000000001
  5.8899900000000001  3.4566599999999998  6.3241500000000004
  5.7593800000000002 11.0158799999999992  3.4004900000000000
  6.6779999999999999  0.9136000000000000  6.5343600000000004
  2.6295700000000002  0.8788500000000000  3.9628500000000000
  1.9341900000000001  4.7996100000000004  2.9392600000000000
  7.1105900000000002  2.4496699999999998  0.5071300000000000
 11.2908299999999997  7.2063899999999999  2.0439500000000002
  4.4381800000000000  8.8610600000000002  5.3523500000000004
  1.8750700000000000  6.4145799999999999  1.3330000000000000
  3.9006900000000000  6.8458300000000003  1.8078600000000000
  3.0647600000000002 11.5444200000000006  1.5507400000000000
 11.4567899999999998  7.9075699999999998  6.5613900000000003
  1.9175700000000000  8.7090300000000003  7.1079100000000004
  4.4067400000000001  5.7830599999999999  6.0167299999999999
  5.9372600000000002  0.2325400000000000  1.0745400000000001
  3.9689199999999998  4.1689600000000002  1.9973500000000000
  5.4767599999999996  5.8945299999999996  0.3403300000000000
  4.4577000000000000  1.6066600000000000  0.1339400000000000
  3.9078200000000001  3.7872300000000001  7.5990399999999996
  1.5894900000000001  6.5454699999999999  4.8885600000000000
