chf_slab_melt_675
 1.0000000000000000
    11.0399999999999991    0.0000000000000000    0.0000000000000000
     0.0000000000000000   11.0399999999999991    0.0000000000000000
     0.0000000000000000    0.0000000000000000   16.3599999999999994
 C   F  
 103  41
Cartesian
 10.0438500000000008  5.8128200000000003  9.9558000000000000
  2.0705399999999998  7.8468900000000001  9.4110200000000006
  5.8733899999999997  4.1011499999999996  4.1863299999999999
  4.0238899999999997  0.0288000000000000 12.5560899999999993
  3.7422000000000000 10.8067299999999999  4.2572000000000001
  0.0581000000000000  8.0893899999999999  4.2511599999999996
  2.2856700000000001  8.9810800000000004  3.8327599999999999
  3.9361100000000002  1.4319900000000001  0.6997200000000000
 10.0604099999999992  8.2134000000000000  6.7680699999999998
  1.9875799999999999  7.5896999999999997 11.8596299999999992
  3.4063500000000002  5.5009800000000002 16.1564799999999984
  7.9957700000000003  4.6907199999999998  3.8361200000000002
  1.6733000000000000  6.7134299999999998  8.6984600000000007
  8.8010800000000007  4.8171999999999997  2.5920700000000001
  1.0664800000000001  3.2371200000000000 14.7864500000000003
 10.3864400000000003  6.1168199999999997  4.3024300000000002
  7.2417299999999996  1.2424500000000001  7.2235199999999997
  7.3138800000000002 10.0939899999999998  5.5925900000000004
  8.6371199999999995  8.0513499999999993  4.5878500000000004
  9.0081500000000005  8.9098000000000006 11.6903500000000005
 10.2457399999999996  8.8378800000000002  9.4649500000000000
  6.2461799999999998  8.3278800000000004  4.8815799999999996
  3.0376699999999999 10.0826499999999992  3.1121400000000001
  2.4912999999999998  4.1231299999999997 14.0242299999999993
  7.9107500000000002  9.9889399999999995  6.9141399999999997
  0.9041300000000000  0.1247000000000000  8.2865400000000005
  6.1051099999999998  7.7865200000000003 15.6824800000000000
  1.8315800000000000 10.3382100000000001  6.2434599999999998
  5.2077700000000000  9.6705900000000007 10.8590800000000005
  0.3579000000000000  4.0562500000000004 11.3849599999999995
  1.3288000000000000  9.3258899999999993  6.6994100000000003
  4.8938699999999997  0.0754800000000000 13.4527400000000004
  2.5426299999999999  8.1696000000000009 10.6376899999999992
  4.9830899999999998  7.4958200000000001  0.1812200000000000
  8.4134899999999995  4.2199999999999998  0.9681400000000000
  1.8929700000000000  6.5094599999999998  3.5939100000000002
  1.8623799999999999  0.2346000000000000  7.1760700000000002
  6.3195300000000003  6.2987000000000002 14.9113399999999992
 10.8398000000000003  3.8525200000000002 14.1820299999999992
  7.5483700000000002  2.2911100000000002  0.3825000000000000
  8.8746500000000008  8.9776199999999999  8.5094499999999993
  3.1285300000000000  4.6727699999999999 15.2074200000000008
  3.9694199999999999  8.8022500000000008 10.7180800000000005
 10.8695599999999999  2.0384199999999999  9.3218399999999999
  7.0368000000000004  2.6345800000000001  7.2667000000000002
  5.4274100000000001  9.0936900000000005  4.1032000000000002
  7.5601700000000003  8.7623499999999996  5.1055000000000001
  0.7952800000000000  6.7894199999999998 11.9131900000000002
  2.7847900000000001  0.3183300000000000  5.6980399999999998
  0.8441200000000000  9.3154000000000003  4.2279700000000000
  6.1577400000000004  3.4284400000000002  8.2274499999999993
  7.4542799999999998  4.6986699999999999  0.1690900000000000
  8.3134200000000007  7.3258400000000004  3.5225700000000000
  5.5427000000000000  9.8203600000000009 13.7102699999999995
  0.0224900000000000  8.0014199999999995  8.4657499999999999
  7.3374199999999998  5.9799400000000000 13.7647200000000005
  3.2363400000000002  5.9099500000000003  3.6255099999999998
  9.2098499999999994  6.2165200000000000  3.3181600000000002
  1.0299100000000001  5.3257099999999999 12.0025300000000001
  9.2279900000000001 10.6927500000000002 13.4164800000000000
  1.5738500000000000  0.8593200000000000 16.1471100000000014
 10.4453700000000005  3.1850999999999998  9.0509799999999991
  8.3866899999999998  5.3165600000000000 13.2399000000000004
  7.2146600000000003  2.0206000000000000  4.5217400000000003
 10.7506799999999991  4.0697299999999998 10.0205099999999998
  1.3447000000000000  2.3590200000000001 15.6923399999999997
  4.9014300000000004 10.2024200000000000  4.8430099999999996
  0.0780300000000000  6.4589600000000003  8.5093499999999995
  1.1799900000000001  2.0116100000000001  3.4289100000000001
  6.0258399999999996 10.7609100000000009  5.4054200000000003
  5.1895400000000000  1.9011000000000000  0.5423300000000000
 10.0785099999999996  7.5070600000000001  5.1109600000000004
  4.1147299999999998  7.3210300000000004  3.0700500000000002
  7.0962300000000003  2.4082699999999999 15.5006900000000005
  0.0267500000000000  2.3634300000000001  3.9062000000000001
  2.6848999999999998  0.3925500000000000 12.9735499999999995
 10.0067100000000000 10.5539799999999993  9.1507000000000005
  4.1823499999999996  9.8376699999999992 11.6872699999999998
  7.5801800000000004  7.9021600000000003  6.5478100000000001
  4.2573600000000003  6.0388900000000003  0.7899300000000000
  9.6607599999999998  3.6320399999999999 14.0668500000000005
 10.8722799999999999  4.6808500000000004  4.8160900000000000
  8.6369100000000003 10.2306799999999996  8.8417800000000000
  0.8258300000000000  4.4911199999999996 13.0463799999999992
  2.6403500000000002  7.6532999999999998  3.3494600000000001
  7.0134400000000001  3.4674000000000000  4.1748500000000002
  7.1339399999999999  5.7038099999999998 15.9371200000000002
  1.0769800000000000  0.5362300000000000  3.1719700000000000
  0.3928900000000000 10.6879799999999996  4.0734100000000000
 10.0562299999999993  8.1245300000000000 10.7313600000000005
  6.6422600000000003  1.2848599999999999  5.8500899999999998
  7.9908299999999999  8.6059699999999992  7.5459399999999999
  8.8195099999999993  3.0749599999999999  0.4383700000000000
 10.9339200000000005  0.6139100000000000  9.0473199999999991
  0.3143200000000000  8.5152400000000004  7.0792900000000003
  1.3773700000000000  0.6216200000000000  4.6954399999999996
  7.9716399999999998 10.9409799999999997  7.7731899999999996
  2.6257999999999999  1.4560400000000000  0.4674000000000000
  5.7264600000000003  9.1109600000000004 14.8580799999999993
  0.7680000000000000  6.8036599999999998  4.3672899999999997
 10.8125099999999996  6.9144800000000002 10.9488299999999992
  8.5519700000000007  3.8517999999999999 13.2645400000000002
 10.3881800000000002  3.5877100000000000  3.8954499999999999
  3.0720100000000001  8.7836999999999996  5.0794600000000001
  3.9111400000000001  1.1284799999999999  3.8620399999999999
  8.0704999999999991 10.5083800000000007  4.2708500000000003
  2.7414499999999999  6.0308999999999999  8.4628300000000003
  5.3260300000000003  5.3620599999999996  3.9059699999999999
  5.1555299999999997  1.0995800000000000 14.3710299999999993
  4.4967600000000001  4.6367599999999998 13.9832800000000006
  4.6764400000000004  8.2144999999999992  1.2920199999999999
  2.8801199999999998  7.5869499999999999 12.7167600000000007
  8.2220499999999994  3.0975500000000000 12.2548499999999994
  6.1217899999999998  3.7848700000000002  9.4325500000000009
  5.5969300000000004 10.7818400000000008  7.3624900000000002
  2.5991200000000001 10.4442599999999999 13.9330700000000007
  9.2741600000000002  6.1847700000000003 14.1446600000000000
  8.3679100000000002  8.2445799999999991 12.5700500000000002
  5.8776099999999998  7.0115299999999996  4.8585200000000004
  8.0391999999999992  0.6191000000000000 13.2023200000000003
  1.2069200000000000  4.5650000000000004  4.6783400000000004
  7.5287899999999999  6.5660999999999996  6.8988899999999997
 10.3075700000000001  3.1080899999999998  0.1632600000000000
  6.1086999999999998  1.4022900000000000  1.4884999999999999
 10.1042299999999994 10.6903299999999994  4.1517400000000002
  5.5137700000000001  0.1010000000000000  9.2888400000000004
  3.3683100000000001  5.4658699999999998  4.9543900000000001
 10.1806300000000007  0.6924500000000000 13.0951799999999992
  5.1970700000000001  4.1511899999999997  7.4085999999999999
  8.5256200000000000  6.4710599999999996  9.4862300000000008
  1.6856100000000001 10.9284300000000005 12.1131499999999992
  7.4851999999999999  5.6969300000000000  4.7840699999999998
  4.7491000000000003  3.3023300000000000  4.1349900000000002
  7.9584500000000000  7.0001800000000003 15.8434600000000003
  8.8501100000000008  3.3609499999999999  7.5935100000000002
  8.2990499999999994  0.9109100000000000  0.6068700000000000
  6.6513499999999999  1.2654700000000001  3.5186600000000001
  2.0389100000000000  3.1982200000000001  3.1965300000000001
  9.6747800000000002  5.0783600000000000  0.3280600000000000
  8.7896000000000001 10.1013300000000008 11.0811100000000007
  4.3509900000000004  5.1060299999999996  1.5926899999999999
  0.5610700000000000  0.2451900000000000  0.6337100000000000
  8.6435099999999991  2.0532699999999999  4.4419000000000004
  6.3725600000000000  9.1815599999999993 10.6085499999999993
