Si  O 
 1.0000000000000000
     9.9854713620000002    0.0000000000000000    0.0000000000000000
    -4.9927356810000001    8.6476718679999998    0.0000000000000000
     0.0000000000000000    0.0000000000000000   10.9861544050000006
 Si  O  
  24  48
Selective dynamics
Cartesian
  1.3134200000000000  2.2749000000000001  0.0000000000000000   F   F   F
  1.1819200000000001  2.3163499999999999  5.2102300000000001   T   T   T
 -1.3488700000000000  6.5127800000000002 10.6460600000000003   T   T   T
 -1.5569400000000000  6.6762400000000000  5.3491700000000000   T   T   T
  6.0781700000000001  2.5824699999999998 10.6299700000000001   T   T   T
  6.0512800000000002  2.6808399999999999  5.1729900000000004   T   T   T
  3.6823500000000000  6.7617399999999996 10.6574200000000001   T   T   T
  3.2039399999999998  7.1219900000000003  5.2502199999999997   T   T   T
  2.3634599999999999  0.1841100000000000  3.4575499999999999   T   T   T
  2.3532299999999999  0.1547900000000000  8.9480500000000003   T   T   T
 -0.1991100000000000  4.5250599999999999  3.4191199999999999   T   T   T
 -0.1920400000000000  4.2716799999999999  8.9451800000000006   T   T   T
  7.1645799999999999  0.4970600000000000  3.3344200000000002   T   T   T
  7.1878700000000002  0.2337700000000000  8.8943999999999992   T   T   T
  4.7884900000000004  4.8919800000000002  3.6638999999999999   T   T   T
  4.7233099999999997  4.6674499999999997  8.7853999999999992   T   T   T
 -1.3602200000000000  2.4079500000000000  1.6317900000000001   T   T   T
  8.5227599999999999  2.3943800000000000  6.9923000000000002   T   T   T
 -3.7769100000000000  6.7798999999999996  1.5819200000000000   T   T   T
  5.7823099999999998  6.9769500000000004  7.1295299999999999   T   T   T
  3.6855899999999999  2.5288599999999999  1.7731200000000000   T   T   T
  3.5667399999999998  2.3690099999999998  7.0039699999999998   T   T   T
  1.1060800000000000  6.7308700000000004  1.5048999999999999   T   T   T
  0.7632800000000000  6.6189200000000001  7.1976800000000001   T   T   T
  0.7242900000000000  3.2420900000000001  3.9766300000000001   T   T   T
  0.8809100000000000  3.4089299999999998  9.7331800000000008   T   T   T
 -1.7134300000000000  7.7343299999999999  4.0735400000000004   T   T   T
 -1.7733399999999999  7.5995900000000001  9.5127299999999995   T   T   T
  5.8195399999999999  4.2685899999999997  4.7701500000000001   T   T   T
  5.7614500000000000  3.8571599999999999  9.6915399999999998   T   T   T
  2.9174600000000002  8.4771099999999997  4.5695399999999999   T   T   T
  3.3070200000000001  8.1960599999999992  9.9346399999999999   T   T   T
 -1.2595799999999999  3.7814800000000002  2.5110100000000002   T   T   T
 -1.3160300000000000  3.2773400000000001  8.3481699999999996   T   T   T
 -3.7166399999999999  8.1882999999999999  2.3475299999999999   T   T   T
 -3.7717800000000001  8.1227300000000007  8.1692499999999999   T   T   T
  3.8234300000000001  3.8036300000000001  2.8530199999999999   T   T   T
  3.8912700000000000  3.7115999999999998  7.8492499999999996   T   T   T
  1.2724599999999999  8.1290999999999993  2.3695700000000000   T   T   T
  1.2732200000000000  7.6502699999999999  8.2882999999999996   T   T   T
  0.0064800000000000  2.0586400000000000  0.8691700000000000   T   T   T
 -0.0293900000000000  2.0594100000000002  6.3056000000000001   T   T   T
 -2.3557500000000000  6.3910900000000002  0.8905000000000000   T   T   T
 -2.9021900000000000  6.7255399999999996  6.1214199999999996   T   T   T
  4.7360199999999999  2.4126900000000000  0.5909400000000000   T   T   T
  4.9341200000000001  1.9372900000000000  6.1219900000000003   T   T   T
  2.5263800000000001  6.3390500000000003  0.7303300000000000   T   T   T
  1.9294199999999999  6.5026799999999998  6.1101799999999997   T   T   T
  2.3544800000000001  2.9809999999999999  1.0661300000000000   T   T   T
  2.4983700000000000  2.8983800000000000  5.9491300000000003   T   T   T
 -0.0317300000000000  7.1234299999999999  0.3145500000000000   T   T   T
 -0.3346300000000000  7.3744199999999998  6.2290599999999996   T   T   T
  7.2917600000000000  2.8295100000000000  0.7065399999999999   T   T   T
  7.4598699999999996  3.0442700000000000  5.9041199999999998   T   T   T
  5.1517299999999997  6.8674499999999998  0.3793000000000000   T   T   T
  4.4604100000000004  7.2733999999999996  6.2537300000000000   T   T   T
  3.3375499999999998  1.1671600000000000  2.5538699999999999   T   T   T
  3.2695300000000000  1.0952100000000000  7.9673699999999998   T   T   T
  0.7405900000000000  5.4928200000000000  2.4925799999999998   T   T   T
  0.2505400000000000  5.2796700000000003  7.7622499999999999   T   T   T
  8.4021000000000008  1.1025900000000000  2.5109300000000001   T   T   T
  8.0124700000000004  1.0016799999999999  7.7539999999999996   T   T   T
  5.8193900000000003  5.5236000000000001  2.6224500000000002   T   T   T
  5.7813800000000004  5.5058400000000001  7.8955500000000001   T   T   T
  1.4642999999999999  0.8572900000000000  4.6263500000000004   T   T   T
  1.7652699999999999  1.0207500000000000 10.1740600000000008   T   T   T
 -0.9785900000000000  5.3555799999999998  4.6286500000000004   T   T   T
 -1.2420000000000000  5.0774600000000003  9.8956999999999997   T   T   T
  6.1928700000000001  1.6172599999999999  3.9289399999999999   T   T   T
  6.1908099999999999  1.1417200000000001  9.7771399999999993   T   T   T
  3.7043900000000001  5.8892300000000004  4.3397899999999998   T   T   T
  3.5873300000000001  5.5640299999999998  9.5698000000000008   T   T   T
