Si  O  C  H  F 
 1.0000000000000000
    13.3585720000000006    0.0000000000000000    0.0000000000000000
     0.0000000000000000   13.3585720000000006    0.0000000000000000
     0.0000000000000000    0.0000000000000000   13.3585720000000006
 Si  O   C   H   F  
   6  12  48   6  36
Cartesian
  0.0686924489384000  6.5581127979309608  6.0913899407091998
 -0.5673083624672800  4.2583245534976806 10.4457554132580004
 -0.3892161553063200  7.6080156041846410 13.7024319293804417
  2.0779744998020799  8.8216514885564798  1.5285897341443602
  5.7695432013704000  5.4664282524471597 -2.7783435903897602
 10.2155372566387204  1.5612996671292803  6.7982578429891607
  8.9920133572724801  6.9839106011449603  7.4078010674488004
  1.0431829101948000  7.7200150741041202  1.0438008777355201
  5.1913162100789201 13.1263256113939608 -3.7383118144392400
 16.4535567613916029  0.6466994245490401 12.6520484817061991
  9.1729711117131600 13.2860984072570005  2.3274792283320802
  4.2461069371322004 19.2169518425419206  4.2298969779388003
  0.6782142996828400 12.8310374498055211 10.2489787050263601
  8.8995780503898807  0.6837029361604801 12.3579816943557201
  1.4782216391755201  3.8833586548723602 15.4215838304763206
 10.0811059390311204 16.8994911424526784 13.6897343395229996
  6.1331784928110400  2.8493763275568398 20.8164830748066016
  5.0252493894323598 22.8443905818527213  5.9611903515397602
  3.1319518041014800  9.0992231112013595  9.2299766803516405
  5.6930218277256808 13.7090707389072808  2.4586944697306801
  8.7750272669763607  9.0657704416132407  3.0615677591907198
 12.1507202437184407 12.2241267991299196  4.2208810105245602
 10.5361355038384001  9.0128186652338798  5.8595950718367602
  6.8690900679905198 10.4247888673325608 12.2856299317893605
 11.7815825564710011 14.4909053442226021  3.1026532496482000
  9.2443312674799607 17.5347939684713623 13.1602046866003199
  9.9253683670121209  7.9986278638506798  5.0402383751449600
  8.2765822095833617  0.8076843772353600 11.4073393565908798
 10.1505018503710414 11.2906959127013202  3.4824060589640000
  9.9785182510142398 10.0740799980877203 10.5613619647889205
  6.8435920272712405 13.3657240458630806  2.0754244819930001
  9.0908156267417208 10.4558551616186008  3.0491123602436403
  0.1016015582318400 12.5687946549449201  4.8367549958407201
  4.4413217611256002 18.8237144898921613  3.0893904586094401
 11.2556301955442013 10.4236618046129195 10.2914469412715608
  6.8419287514715199 10.2818856769482814  0.1618972095682000
  2.2718900690827604 13.9086699798168016  4.3123394050368002
 11.5104477617443202 13.2396447746413202  3.3779591248961602
 11.3326157795659199 10.1800083977903597  5.5043907759424799
 11.7810080042892800 10.4460509048706403  8.9459687641314414
 11.2696282423858403 11.0959064256404005  4.4409020347933597
  0.0565127709174000 12.1244663749954000  9.5287386050029603
  8.7782158245270416 10.1242831146923606 10.8716815923489207
  0.3269029588408000 12.2504761816427603  6.2100378383273602
  6.6454029172220404  1.8001342362742800 20.7124283484126792
 12.8726830651869601 11.4094094009080003  8.5689899958771605
 11.3958024930545196  9.7790236077234791  7.8166309460941203
  9.7941221337264803  7.7152464646572803  7.9397092141160792
 15.8825598300236805 -0.3375347791241600 13.2341315583912014
  7.4375607598075204 10.3398477193419591 11.0604217836653618
 11.9095884009465998 10.5527786815217617  6.7563747121975597
  9.1287346012923205  8.0211592329002013  3.8774783450636798
 11.8905885039909993  2.2748934768255200  2.5031632857186001
  4.3858028679650003 13.3140855506970404 -4.6855105795139202
  8.1128077198920003 11.1783855888114001  2.1422977605964402
 10.2120557456040810 12.6278634550288018  3.0288996385361600
  5.8349428958965204  8.6756767617122392  6.4197849184566804
  4.4984764114276006 14.0188944962746422  2.9812505473122002
 10.4863050913925608  8.8416200155678002  7.3318412881709607
  1.0032183375138399 13.3019173610479609  4.0064098049931607
  8.0160698841396414 12.5799207423922805  2.0921745282523601
  7.3162923111201206 10.1023178819242005  1.4809430474633600
  1.7228034667520802  4.6656642834364002 14.5093867949988820
 12.9167525934578009 11.4801514555483610  7.1467060410944399
  7.8261613521160802  8.8987753337984010  1.9872135563339601
  3.3663612126857605 13.9370489301735994  3.5069898390156005
  8.7806823512611203  3.4354470715695600  4.6543116346079207
 11.5795894594590809  3.2166423452813602  2.9984163123322003
 10.0207071595189205  6.9304514662010401  5.3704045659539199
  2.3553545605244803  0.8925443051081999  5.3463720941687605
  8.5188496645609195  7.0924352393158001  3.7619528800648006
 12.2329112624914007  2.3056887256856804  1.5048615706293600
  8.1098260866216005 17.1517550840292792 12.5254104214176802
  4.7720427334297204  6.3196622877309601 -3.6324856078123999
  8.1392733219812410  4.0212732201289603  4.1229454452066800
  0.5828950106911600  5.0913537486314802 11.1513522474121611
 11.6061794298536416  2.0575388235279202  6.1193228483469202
  2.6471065745188000  9.7212199979937211  0.3587719697183200
  9.2315611405765594  2.1982355785749599  7.9594111040302797
 11.1601738476038008  0.7453583565407200  7.9207230764896410
  1.3651489415815601 12.9338054785444001  6.7920235310224806
  6.7404555691166008 10.4879727755210403  9.8797340156171991
 -2.0880644964051203  4.8293685070390406 10.6043988754441614
  5.8288036969624804  5.7763757101912407 -1.2872263873197600
 14.9715259254102815  9.9388057545869213  2.5980571041920801
 -1.1357693025267201  6.5353688940009205  7.0844040658294007
 11.8989255887761995  8.7537948854681193 14.0948121960506807
  9.2319514780504015  5.5922404858146395 13.2721841186617997
  7.5335360882701199  7.6128225527331210  1.6735598963742000
 12.2527665088121616  6.1592966384425605  0.4564435696534800
  9.4346553846784396  2.4152000279844401  5.5729780929192403
  0.6399956923622800 12.9896171916032390  2.7217661639838804
  3.7159573128830004  9.0254470576883605 10.4159505689259202
  3.6612462125712404 10.1685423346856005  8.4355739297415617
 -0.3083909169346400  7.9084313200495595 12.1613380375012010
  1.8142740175648400  9.3693129984262011  9.4139793876940008
  3.2394680036720405  7.9945155610462004  2.2087988693839602
 -0.4976870920177200  2.8163583459016004 10.9573748279431200
  5.5341097246566004  3.9736535177634003 -3.1334279263074802
 10.2059416607854008  7.3207266890955207  9.2283251600952809
  3.1846349395979203  7.8996310935731211  8.5175711156347997
  1.0835758922798000  5.3977026742501995  6.2721200650829996
 -0.3799641419248400  4.2371831438647600  8.8344218826313199
  0.9237723717011601  7.8748059241254813  6.3620324720576802
  9.6242354294165207  0.2167314759138000  5.9439142447150397
  7.2384281338179592  5.7967095941467601 -3.4387286047813599
 -0.3878251272039600  6.5504206650019201  4.4949381264619594
 11.9786836108308012 11.0528981023292410 11.3475282206609602
