C  F  H 
 1.0000000000000000
    12.7103135520000006    0.0000000000000000    0.0000000000000000
     0.0000000000000000   12.7103135520000006    0.0000000000000000
     0.0000000000000000    0.0000000000000000    8.4735423680000004
 C   F   H  
  97  38   9
Cartesian
  7.2297500000000001  2.1185499999999999  4.6451799999999999
  4.5978899999999996  5.1739499999999996  2.6988699999999999
  7.6718900000000003  2.9088799999999999  3.4311900000000000
  8.9052399999999992  0.8216900000000000  6.4210900000000004
  7.0279900000000000  3.8118799999999999  2.5627800000000001
 12.6384399999999992  6.5305499999999999  1.3352700000000000
  5.9536300000000004 12.0182900000000004  7.4199700000000002
 10.1992200000000004  0.2437200000000000  6.2594799999999999
 12.5312000000000001  4.9635699999999998  8.2457200000000004
 11.3761200000000002  6.7745499999999996  0.6941300000000000
  3.3675799999999998  5.7354000000000003  0.5279400000000000
  5.8717100000000002  0.1532900000000000  6.3583400000000001
  8.8122799999999994  9.6012199999999996  2.0789399999999998
  9.1444100000000006  7.1101999999999999  4.6593999999999998
 11.9059000000000008  0.3457700000000000  2.4690599999999998
  9.9561600000000006  5.8018999999999998  7.6438899999999999
  9.1277200000000001  2.5511800000000000  3.3147400000000000
  1.5195000000000001  8.4529300000000003  7.7954900000000000
  7.0029700000000004  5.2012999999999998  0.5609499999999999
 11.8860899999999994  3.6894700000000000  0.6016400000000000
  7.8782199999999998 10.4187799999999999  2.7287300000000001
  7.5945099999999996 12.3478399999999997  4.5751799999999996
  6.4991500000000002  9.4985300000000006  8.0402000000000005
  5.4835500000000001 10.9157600000000006  4.7970600000000001
  2.5853999999999999  9.1766299999999994  0.0738300000000000
 10.8869199999999999  3.6962999999999999  1.7188099999999999
  0.1756100000000000  7.0416100000000004  2.6373400000000000
  6.1411800000000003 12.2286900000000003  4.8968299999999996
  6.6148300000000004  6.8455899999999996  4.5294600000000003
  7.5691800000000002  6.1665500000000000  8.2465899999999994
  7.7494199999999998  7.5117000000000003  5.0376799999999999
  0.3770500000000000  9.2720000000000002  7.6111399999999998
  2.1077100000000000  5.6948200000000000  1.1328700000000000
 10.4660600000000006  2.6755499999999999  2.5651799999999998
 10.4137100000000000 10.2163100000000000  3.7337600000000002
  5.9166600000000003  8.7177000000000007  5.9474700000000000
  5.6007999999999996  5.2345800000000002  0.3943000000000000
  2.9930900000000000  5.8599199999999998  4.8306199999999997
 10.8940099999999997  8.3261299999999991  2.2388200000000000
  1.9012100000000001  7.5313499999999998  6.8703799999999999
  8.1933199999999999  0.9595200000000000  5.0086899999999996
  4.5603100000000003  8.7891300000000001  3.9325500000000000
  3.4940600000000002  8.4927299999999999  4.6788499999999997
  3.3744100000000001  5.5150600000000001  3.3522300000000000
 11.9465000000000003 10.3199600000000000  5.5675699999999999
 12.2919699999999992  2.5031200000000000  4.2217900000000004
 10.6027500000000003 12.2959599999999991  4.9462000000000002
 10.0314499999999995  9.3452500000000001  2.6521400000000002
 10.5781299999999998  7.7865399999999996  1.0436700000000001
  9.7852599999999992 11.5076400000000003  3.8635999999999999
  3.3254000000000001  7.0521500000000001  6.8504600000000000
  9.3033500000000000  1.5201000000000000  4.1388699999999998
  3.8449100000000000  7.1570600000000004  5.3953300000000004
 11.8226499999999994  7.8126100000000003  3.0989300000000002
  4.4852100000000004  5.2203400000000002  1.2991800000000000
  6.5122099999999996  6.8861999999999997  7.6559999999999997
  5.1197499999999998 10.1883300000000006  3.6750200000000000
 10.1672100000000007  7.7698099999999997  5.1699000000000002
 12.2099700000000002  0.3178000000000000  1.1141500000000000
  6.7269800000000002  5.5475899999999996  4.0347499999999998
  0.9518100000000000  0.0715600000000000  6.6332100000000001
  5.7328400000000004  1.5181400000000000  6.4454799999999999
  5.4803199999999999 10.5273900000000005  2.3346800000000001
  5.3312600000000003  7.7374700000000001  4.8837799999999998
  8.9532500000000006  6.7042599999999997  8.2175100000000008
 11.3791799999999999  9.6578499999999998  4.4702599999999997
  6.0227700000000004  4.7448100000000002  3.1619700000000002
 11.8025599999999997 11.6245600000000007  5.5963200000000004
 11.1458100000000009  0.2906000000000000  7.3312700000000000
  0.7630600000000000  5.7104900000000001  0.6204600000000000
 11.2759400000000003  5.8712000000000000  8.1477100000000000
  1.2632699999999999  6.4785000000000004  3.3419699999999999
  6.1494700000000000  2.3871099999999998  5.3690400000000000
 12.6702100000000009  8.0632300000000008  5.6076600000000001
  6.7474100000000004 10.2812900000000003  1.8953899999999999
  1.6385200000000000  6.5072200000000002  4.6877100000000000
 10.4051899999999993 12.4965499999999992  2.5909000000000000
  5.9601600000000001 10.6304800000000004  7.2797499999999999
 12.3623799999999999 12.4600299999999997  6.6854300000000002
  3.9685199999999998  6.3272300000000001  7.7938700000000001
  7.4024999999999999  8.5999199999999991  5.9652799999999999
  6.6261299999999999  8.2749000000000006  7.2123499999999998
  8.3188999999999993  8.8097399999999997  1.0757000000000001
 11.4225200000000005  1.7100100000000000  3.2442700000000002
  5.3230899999999997  6.0834599999999996  7.7283600000000003
  7.6063599999999996  4.1491499999999997  1.3368100000000001
  9.2199000000000009  7.8944400000000003  0.4884500000000000
 11.6302099999999999  8.1840899999999994  4.5050699999999999
  5.6759500000000003 10.1402400000000004  5.9713399999999996
  7.0315500000000002  9.3915299999999995  0.7949600000000000
  9.9088999999999992  0.0768800000000000  1.2593799999999999
  2.2736900000000002  5.8384099999999997  2.5394700000000001
 12.5548999999999999  9.2389399999999995  6.3756399999999998
  8.2701600000000006 11.4409399999999994  3.7568299999999999
 11.0752199999999998  0.4038000000000000  0.3096700000000000
  1.0480700000000001  7.2082699999999997  5.7639899999999997
 10.4754900000000006  0.7701200000000000  3.8569100000000001
 11.0714600000000001  3.1207900000000000  8.0800900000000002
  1.4440200000000001  1.1307000000000000  7.1921299999999997
  3.1552699999999998  1.9841000000000000  5.9835700000000003
  4.5435100000000004 10.2224799999999991  1.3547600000000000
  3.4276700000000000  0.8737200000000001  0.6969600000000000
  2.9348999999999998  4.7862600000000004  5.7755000000000001
  9.0103000000000009  2.1699299999999999  6.8856099999999998
  2.4592399999999999 11.5180000000000007  3.2289300000000001
  3.4690699999999999  9.7170299999999994  7.4668200000000002
  8.7485099999999996  0.8468500000000000  1.1769000000000001
  9.2507699999999993  6.6214899999999997  3.3581599999999998
  2.9741900000000001  0.9129100000000000  3.8910600000000000
  9.9546899999999994  4.7875800000000002  1.7820199999999999
  2.3692400000000000  2.3561200000000002  2.2546100000000000
  3.2143600000000001  8.2991399999999995  0.9476100000000000
 11.4687900000000003  3.2445599999999999  5.1655899999999999
  0.1285400000000000 12.4677699999999998  3.3290600000000001
  2.1583199999999998 10.3112499999999994  0.6945100000000000
  5.8120000000000003 12.5212500000000002  0.1900900000000000
  7.8526800000000003  4.9765600000000001  4.5550100000000002
  2.4673300000000000  9.3590000000000000  4.9727800000000002
  9.5693300000000008  4.8780099999999997  6.6985599999999996
  9.4493700000000000 11.5495599999999996  0.6609800000000000
  8.2003500000000003  0.1042400000000000  7.3949199999999999
  1.8609700000000000 12.0928799999999992  5.8886399999999997
  8.5455500000000004  3.3555999999999999  0.6651400000000000
  0.1188000000000000  2.7918799999999999  0.9392300000000000
  0.8327400000000000  0.2226300000000000  0.7733900000000000
  5.3227000000000002  1.3216399999999999  2.3282099999999999
  0.0157700000000000  3.6253600000000001  3.4908199999999998
 12.6158800000000006 10.0411999999999999  0.1570800000000000
  5.4088900000000004  3.5514299999999999  5.1712800000000003
  0.6329000000000000  2.0312899999999998  4.8371800000000000
  9.9269999999999996  8.4120100000000004  6.3847199999999997
  0.3953800000000000  4.5620000000000003  7.0918299999999999
  2.6484600000000000  3.4316100000000000  7.9758100000000001
  5.2913100000000002  2.0961500000000002  7.6219099999999997
  1.0163700000000000  9.5356100000000001  2.7497500000000001
  2.9948899999999998  2.8657499999999998  7.2327700000000004
  5.4551100000000003  0.0873000000000000  4.2165499999999998
  4.4309599999999998  1.0327900000000001  1.9839300000000000
  2.9797500000000001  1.5492800000000000  5.0965699999999998
  3.0829000000000000  1.7439000000000000  1.2006200000000000
  2.4716999999999998  1.5140199999999999  2.9921400000000000
  8.1306700000000003  9.4498899999999999  5.9837300000000004
  2.2149899999999998 12.4415399999999998  3.5922100000000001
  1.3770899999999999 10.5542899999999999  2.7329400000000001
