Si O  C  H  F 
 1.0000000000000000
    10.6735509999999998    0.0000000000000000    0.0000000000000000
     0.0000000000000000   10.6735509999999998    0.0000000000000000
     0.0000000000000000    0.0000000000000000   10.6735509999999998
 Si  O   C   H   F  
  33  33  11  11  11
Cartesian
 10.1937400000000000 10.5966199999999997  5.9743300000000001
  8.4820700000000002  2.7575500000000002  5.8136500000000000
  1.5611900000000001  4.1077399999999997  0.7480900000000000
  9.7534100000000006  9.2495899999999995  8.5912799999999994
  6.2594099999999999  1.0490400000000000  7.1162700000000001
 10.1634799999999998  6.4113100000000003  9.4982100000000003
 10.1914099999999994  6.8920399999999997  2.8557199999999998
  4.9069399999999996  6.8560699999999999  3.1112400000000000
  5.1822400000000002  2.1673499999999999  2.4012500000000001
  8.3416300000000003  5.7168799999999997  6.4696800000000003
  1.2440400000000000  9.5288100000000000  3.1367699999999998
  0.4630200000000000  4.5556500000000000  5.4125500000000004
  0.4274100000000000  0.7460900000000000  2.1732700000000000
  2.1331000000000002  7.8083799999999997  0.1560200000000000
 10.3052299999999999  7.6405099999999999  4.9797300000000000
  9.2400900000000004  4.0571799999999998  0.4294500000000000
  7.1404100000000001  0.2962000000000000 10.1048299999999998
  9.1816899999999997  9.6329999999999991  3.0953900000000001
  1.4137599999999999  1.6863400000000000  7.6684599999999996
  8.3621099999999995  8.3623300000000000  0.5324900000000000
  9.0556599999999996  3.8441800000000002  3.2754699999999999
  1.1893700000000000  2.9675500000000001  2.7600600000000002
  5.5009800000000002  5.4838600000000000  5.8058600000000000
  1.8127400000000000  7.3287699999999996  2.4013499999999999
  9.9922299999999993  4.0402899999999997  8.3327600000000004
  1.4794700000000001 10.6426999999999996  9.9260199999999994
  6.5002100000000000  5.1303900000000002  1.0551400000000000
  7.1998300000000004  6.3135500000000002  9.3556200000000000
  4.1523399999999997  3.2140000000000000  7.6994899999999999
  3.9873900000000000  8.3170199999999994  6.3772300000000000
  5.5796400000000004  9.7352299999999996  2.1851900000000000
  4.8361099999999997  2.0513800000000000 10.2643500000000003
  1.3703500000000000  6.7012900000000002  6.0360199999999997
  3.2506699999999999  7.0676199999999998  3.1208700000000000
  9.2386700000000008  9.7087800000000009  7.1258200000000000
  5.6936900000000001  6.2372199999999998  1.8639100000000000
  0.9441800000000000  6.9721700000000002 10.1613699999999998
  4.1931799999999999  2.2320000000000002  1.0648200000000001
  0.0948000000000000  4.7213500000000002  0.2138600000000000
  2.8989600000000002  7.1733099999999999  5.9439500000000001
  5.5532199999999996  0.6211700000000000  2.6802999999999999
  7.0524899999999997  5.1608000000000001  5.5340699999999998
  9.2505400000000009  3.0646000000000000  1.7400899999999999
  8.6261700000000001  9.2378800000000005  9.7571499999999993
  7.1721300000000001  2.3222800000000001  6.7820999999999998
  0.8902700000000000  0.6144800000000000  6.6205699999999998
  6.3387500000000001  1.6338299999999999 10.6706900000000005
  7.5838099999999997  5.8314300000000001  7.8986200000000002
  2.2199200000000001  9.3010500000000000 10.1507400000000008
  5.6141300000000003  8.3874300000000002  3.2253599999999998
  9.0571500000000000  3.4203000000000001  9.6428200000000004
  6.1703099999999997  5.3480100000000004 10.1639700000000008
  9.4539899999999992  0.5427100000000000  2.5570400000000002
  0.1821800000000000  2.6487099999999999  8.1116100000000007
  0.9364000000000000  0.5648000000000000  0.6583100000000000
  4.8018500000000000  1.7820800000000001  7.3128799999999998
  0.1194400000000000 10.3761899999999994  9.1136599999999994
  4.9286199999999996  5.8883299999999998  4.4109299999999996
  7.8988399999999999  3.1936300000000002  4.3343800000000003
  4.5679800000000004  3.3718300000000001  9.2941099999999999
  8.9515300000000000  7.1316199999999998  5.7974399999999999
  5.3842900000000000  7.0934600000000003  6.5178500000000001
  4.7659300000000000  4.5085499999999996  6.8024899999999997
  9.2091700000000003  1.2168500000000000  5.6501700000000001
  2.1590099999999999  0.9556800000000000  8.8497199999999996
 10.1052099999999996  7.6419300000000003  8.3437099999999997
  9.5740300000000005  8.3795599999999997  1.8919699999999999
  8.3221699999999998  5.5018300000000000  1.0871900000000001
  6.3956700000000000  3.5122200000000001  2.0707900000000001
  6.7714200000000000  9.4405400000000004  0.7177900000000000
  0.1075900000000000  3.9874700000000001  3.8659300000000001
  8.7287300000000005  5.6816800000000001  2.6667000000000001
  9.4239700000000006  4.2516600000000002  6.5574399999999997
  2.5018099999999999  3.1334300000000002  7.0170800000000000
  6.4823000000000004 10.5373400000000004  8.4314999999999998
  8.5480300000000007  6.6044499999999999 10.5576200000000000
 10.4093499999999999  9.4952000000000005  4.5991600000000004
  7.1827399999999999  9.8119099999999992  8.0366800000000005
  5.6109900000000001  9.8795599999999997  8.5989799999999992
  1.9285300000000001  4.0429800000000000  7.2531800000000004
  6.1162200000000002  8.8974200000000003 10.6535100000000007
  1.2824300000000000  6.3484499999999997  7.5045999999999999
  7.3113900000000003  2.9766800000000000  2.0229100000000000
  6.1670499999999997  7.3764399999999997  7.0926099999999996
  2.4891299999999998  2.9130900000000000  3.4688200000000000
  7.8315400000000004  6.1623799999999997  3.1287099999999999
  2.7393700000000001  3.1145000000000000  5.9242900000000001
  6.3746499999999999  3.8686799999999999  3.1181800000000002
  6.1820100000000000  7.5929599999999997  8.9931000000000001
  3.5740400000000001  7.3043399999999998 10.2113999999999994
  1.9273499999999999  3.1175899999999999 10.1650200000000002
  8.6685300000000005  0.9661999999999999 10.2949000000000002
  4.1419400000000000  9.4449500000000004  1.4221100000000000
  4.1538399999999998  0.7135700000000000  9.8084299999999995
  7.6650900000000002  9.7459399999999992  3.6598199999999999
  6.1699400000000004  0.1011300000000000  5.7706700000000000
  4.3863799999999999  2.6341999999999999  3.6616700000000000
  2.8905200000000000  5.1424000000000003  0.7295000000000000
  2.6003799999999999 10.0051100000000002  3.9526699999999999
