C  F  H 
 1.0000000000000000
    13.0829725020000005    0.0000000000000000    0.0000000000000000
     0.0000000000000000   13.0829725020000005    0.0000000000000000
     0.0000000000000000    0.0000000000000000    8.7219816679999997
 C   F   H  
  75  61   8
Cartesian
  6.1142000000000003  8.9053299999999993  8.1508099999999999
  2.1851699999999998  4.2099299999999999  7.7346000000000004
  8.0175199999999993  1.2569200000000000  1.0333200000000000
  3.6453099999999998  2.7627299999999999  1.7736000000000001
  6.0914900000000003  3.0108400000000000  1.7731699999999999
  8.6798500000000001  3.1356700000000002  2.6752699999999998
  2.8275999999999999 12.4446300000000001  5.3671899999999999
 11.4780999999999995  0.4041500000000000  2.2887599999999999
  6.6334999999999997 12.4854900000000004  8.0738500000000002
  2.8664800000000001  1.7855900000000000  5.2220199999999997
  9.5255399999999995 12.3477099999999993  1.5992100000000000
  9.2163799999999991  0.6087800000000000  1.6723399999999999
 12.4539200000000001  7.0358499999999999  1.8063700000000000
  1.4454100000000001  6.0078199999999997  0.7055100000000000
  3.3222299999999998  4.8517299999999999  7.0123199999999999
  5.3107899999999999 12.1828500000000002  8.7127999999999997
 12.1628799999999995 10.5507700000000000  3.4001199999999998
  4.9573799999999997  4.9359400000000004  0.3829300000000000
 10.5552399999999995  3.8200400000000001  5.9056499999999996
  6.0161499999999997  4.2720900000000004  1.1167100000000001
  8.6720000000000006  2.1274799999999998  8.6422399999999993
 12.5175099999999997 12.2897300000000005  7.9182800000000002
  0.2489900000000000  1.3997999999999999  7.9413299999999998
  2.8966599999999998  6.2548399999999997  0.9623699999999999
  0.1415400000000000  0.0508800000000000  8.7218199999999992
  1.2962600000000000  5.1009000000000002  8.3911300000000004
  0.3248300000000000  5.8298800000000002  1.6617000000000000
  0.0903600000000000  2.2189199999999998  2.4150399999999999
  4.9390700000000001  2.1886500000000000  1.8716900000000001
  1.3441799999999999  9.0991000000000000  6.3578000000000001
 12.4875200000000000  3.5165999999999999  2.4863800000000000
  3.6553599999999999  5.2071300000000003  1.2040200000000001
 11.0780799999999999  3.7633800000000002  2.4889399999999999
 12.7077200000000001  1.0442100000000001  6.6295799999999998
 10.3533700000000000  1.3644000000000001  2.1616599999999999
  5.1189700000000000 10.9634599999999995  0.7002300000000000
 12.5016400000000001 10.1117399999999993  4.5504600000000002
  4.7381200000000003  0.9216600000000000  2.6155400000000002
  4.7455600000000002  4.9027300000000000  7.7555699999999996
  3.4183800000000000  0.9965300000000000  3.1499000000000001
  4.0557499999999997  3.9081700000000001  6.0532300000000001
  7.8738000000000001  2.1940499999999998  3.4089399999999999
  0.4652900000000000  9.0626899999999999  4.9470799999999997
  3.8484400000000001  2.7132600000000000  5.3197999999999999
  2.8710000000000000 11.8394200000000005  1.2329500000000000
  1.4655499999999999  2.6013999999999999  2.4745599999999999
 12.1860999999999997 12.8841900000000003  6.6420800000000000
  1.6312700000000000  1.8239300000000001  8.4913100000000004
 10.8881300000000003 12.2063400000000009  2.0744500000000001
  1.7228399999999999  3.8710100000000001  2.2306599999999999
  2.1323400000000001  3.0267100000000000  8.3008199999999999
  7.8343800000000003  8.5138999999999996  3.5253100000000002
  3.0887600000000002  4.0523699999999998  1.8010500000000000
  6.6064200000000000 12.0306099999999994  6.5430000000000001
  8.5797799999999995  0.9740700000000000  7.6854500000000003
 11.4697899999999997 10.9421800000000005  2.3223799999999999
 10.4973899999999993 10.1046899999999997  5.9855999999999998
  4.3324299999999996  0.0671800000000000  8.6761900000000001
 10.0843699999999998  2.7550100000000000  2.4491200000000002
  2.0863999999999998  0.9232900000000001  0.9557800000000000
  2.9001999999999999  0.5669999999999999  4.4834800000000001
  3.8386900000000002 10.8267000000000007  1.2884300000000000
  6.0531100000000002  9.8783799999999999  0.7302100000000000
  0.8303600000000000  0.0799700000000000  1.3051299999999999
  3.1371500000000001 13.0032099999999993  0.6031400000000000
 11.6650899999999993 12.2798999999999996  5.4569500000000000
  7.5563799999999999  0.3049000000000000  8.5660100000000003
  0.3986900000000000  4.5849700000000002  2.2487300000000001
 11.5873899999999992 10.7483500000000003  5.5415000000000001
  1.5037499999999999 11.8059300000000000  1.7328800000000000
  2.5888100000000001  1.7693099999999999  2.1388900000000000
  5.2782799999999996  4.2774400000000004  6.6312199999999999
 12.7772400000000008  0.8493100000000000  2.2028900000000000
  7.4556199999999997  2.3714100000000000  2.0276999999999998
  9.6204900000000002  6.7727500000000003  7.4927400000000004
 11.4481699999999993  7.0590299999999999  0.8075800000000000
 12.3673000000000002  2.2174800000000001  8.5025800000000000
 10.9713200000000004  9.8443100000000001  1.6500699999999999
 12.0862900000000000 11.0922300000000007  8.2888400000000004
  6.8722799999999999  9.1249199999999995  4.2724099999999998
  1.0752299999999999 10.1840299999999999  7.2491399999999997
  9.7791999999999994  0.2358100000000000  7.5318300000000002
  5.0665899999999997  2.3377100000000000  4.7350300000000001
  7.7783499999999997 11.6941600000000001  5.8970700000000003
  5.8298100000000002  6.1005300000000000  3.6664800000000000
  5.7006699999999997 10.9747199999999996  6.4251600000000000
 12.8884899999999991  7.8355300000000003  4.9603500000000000
 10.9010099999999994  6.4392800000000001  7.1235999999999997
  1.1428600000000000  7.9736300000000000  7.1915800000000001
  8.5916099999999993  4.4597699999999998  2.9076399999999998
  2.2887700000000000  6.1289300000000004  3.7080000000000002
  3.4232200000000002 11.3521000000000001  4.7731000000000003
  7.1706899999999996  3.0184199999999999  4.3082200000000004
  3.9647700000000001  7.4707299999999996  3.2757299999999998
  8.3088200000000008  7.4696699999999998  4.1684799999999997
  3.1703500000000000 12.5051799999999993  6.7847600000000003
  8.6916700000000002  6.8846900000000000  6.5021000000000004
  1.1281099999999999  4.7097300000000004  5.2210500000000000
  6.4937500000000004  7.5673100000000000  8.6904400000000006
  7.3218899999999998  8.0894600000000008  2.2947500000000001
  9.5675299999999996 10.3503699999999998  6.9177600000000004
 11.5535499999999995  4.2940699999999996  5.0836300000000003
  8.1103900000000007  1.3687800000000001  6.4187300000000000
 12.9911999999999992  4.9592299999999998  7.9920700000000000
  9.4903300000000002  4.6733300000000000  5.7953299999999999
  0.8688500000000000 10.6241900000000005  1.2531800000000000
  9.7463700000000006  8.0552299999999999  7.9568500000000002
 10.4934700000000003 13.0444999999999993  5.1056100000000004
  7.8609600000000004  3.1107999999999998  8.0096000000000007
  8.4675700000000003  1.0837900000000000  3.9529800000000002
  5.6877899999999997 13.0406300000000002  3.0430700000000002
  8.8363200000000006  9.3536400000000004  3.3003399999999998
 10.1920400000000004  2.5658900000000000  5.4590800000000002
  3.0477699999999999  6.2177300000000004  6.5439299999999996
 10.1960999999999995  8.9134600000000006  5.4287299999999998
 11.0611300000000004  3.6249699999999998  7.2192100000000003
  1.4217000000000000  8.9859399999999994  3.9084099999999999
 12.5761299999999991  2.0047000000000001  5.6507800000000001
  6.4985400000000002  3.9781900000000001  6.2549400000000004
  7.2441800000000001  4.8515800000000002  0.9042400000000000
  4.9632199999999997  8.7746999999999993  7.4534399999999996
  5.8839499999999996  6.6663600000000001  6.0094599999999998
  2.7035399999999998  9.0615000000000006  6.2125199999999996
  1.4326000000000001 12.0414300000000001  5.4884300000000001
  3.5200000000000000  9.7037499999999994  2.0415999999999999
  1.7988800000000000  2.0679900000000000  6.0954300000000003
 11.7234800000000003  7.1797700000000004  2.9842499999999998
  7.0509700000000004  9.2353299999999994  7.3257199999999996
  7.2608100000000002 10.6679700000000004  0.8760000000000000
  0.2442400000000000  8.1160099999999993  1.4779899999999999
  1.3414400000000000 11.6674799999999994  3.0783800000000001
  3.4762900000000001  7.4797000000000002  0.5890600000000000
 10.7425899999999999  5.0854600000000003  2.6770299999999998
  4.5308400000000004  1.1418600000000001  7.8220599999999996
  9.1105800000000006  5.8399200000000002  8.3182799999999997
  5.9957300000000000  0.0595100000000000  5.7805799999999996
  9.7271199999999993  2.4728699999999999  0.0033600000000000
  1.6520100000000000  5.4969500000000000  4.7894199999999998
  9.0340399999999992 11.5574999999999992  1.0569400000000000
  4.8732899999999999  6.7251200000000004  3.4957500000000001
  5.8808199999999999  6.3488800000000003  5.0561400000000001
 12.3127300000000002 12.5354500000000009  4.5957800000000004
  5.8875700000000002  9.2754700000000003  1.5829299999999999
  3.0773799999999998  6.9028200000000002  3.7020900000000001
