Si  O  C  H  F 
 1.0000000000000000
    10.4063560000000006    0.0000000000000000    0.0000000000000000
     0.0000000000000000   10.4063560000000006    0.0000000000000000
     0.0000000000000000    0.0000000000000000   10.4063560000000006
 Si  O   C   H   F  
  18  36  18   6  18
Cartesian
  0.8724695114213600  3.0965273627329601  2.5958145130556001
  2.0233298585547201  4.8937543700604005  6.6932984566147997
  5.9899508575706797  3.1256800406220400  7.2959614394521211
  9.0391969418176412  5.8230662076698803 10.4936306736745202
  5.5713771448818399  8.5485111364640805  8.4779402251229605
  3.8210999736018003  2.4272535032667601  1.5405570463035601
  6.0503883716296798  0.3507585084800801  6.6014375977875206
  1.9384952672350801  8.2386034028433599  4.6590986389002804
  7.2757992287656812 10.4839360083613613  1.5951569068372402
  7.6106271671631607  4.1962160151897203  4.9059650841272404
  0.5601938114928401  6.1050162252610010  2.6398528588213201
  9.8179104929205607  1.9114304165502800  4.8880408643621607
  4.4820691447257603  7.3692284295057204  6.1313073633772008
  9.0715486376046801 10.3817311276065212  9.6301003261207203
  9.3478619484048409  5.4929284139216001  7.2732125208547611
  9.9501420814049215  2.4332239418946400  7.9269400129018806
  4.3966512771523201 10.0321928684310002  0.6150532065451600
  9.0331068300957611  9.4123395220537205  3.8821833061141602
  2.1416543928806804  0.4420968641726001  6.4343432598133203
  5.6433456298337603 10.2933793960859994  1.6363882421355200
  2.9022333077002003  7.6281687452181206  5.7788795713311600
  1.3124633551099201  7.1815897594527609  3.7397119673893600
 -0.0435987812882800  5.7026881871144397  1.0219627469842800
  0.7221885147092401  2.0152996898837601  3.7898343891904802
  9.1378960252996411  3.8187776911968405  7.8350355514429602
  3.5025713024800003  0.9813067791092400  0.6379382402790000
  1.3922802096934803  7.8097938943293599  8.2930522671514808
  3.9116798100054804  7.0817929094763201  3.4797462093567204
  4.9511196156375199  9.4504301150476415  9.6222982647732795
  7.7247355663557205 10.1309810303203598 10.5311038575669595
  7.9290082761568810  9.4930983599823993  2.7091950917095202
  8.6027385535165202  2.9795135089452001  4.4223122063491607
  4.6726015101916403  3.5780041674078804  0.5447166463411600
  6.5585741296142004  9.5683327757013608  7.5532164458103201
  3.2656255486185204  5.5851544317809205  7.6660837829863206
  9.2746040118809603  0.4046508408693200  4.6489917778259606
  2.3810785244871200  3.0377672491976004  1.8718453667712003
  8.3430479395365200  5.2613521316290006  5.9489317078712407
  6.5657414032456405  1.6677349961236401  7.5099188244646804
  0.6137164060534001  4.5449413298345203  3.2594995349684401
  8.9676842552585203  7.2191264221168003  6.9304840769820810
  9.1426394504915613  5.9793281534294405  8.9096805797408010
  0.5509886611659200  5.4838399188454403  6.8281990672860404
  8.2279227352992006  7.1343917318147607  0.6313060614730800
  4.3661337016102797  7.7831131422445203  7.6865683825816404
 10.2857599662863617 -0.3002707195198000 10.6894922381115620
  6.3957543064305602  3.5256828825839603  5.7795160240641206
  6.9627353514337207  2.5769076210934401 10.1088576377821600
  9.0171369239874792  1.1807698792943202  8.5998796153326396
  6.9129491589949605  6.9483684404036810  2.8954115250879604
  8.0808144284043610  4.4516298249808406  0.3902436572415600
  4.3531902760174805  0.2389991360274000  6.8191021430615208
 -0.2364257482521600  1.9260327193530402  6.4102965645592009
  2.1581845771960002 10.0177643517734403  8.9765184189940399
  2.3036903052668403  6.2401212167640807  1.7048725750350802
  3.9284106288644800  6.1148916489778804 10.1254081144916803
  3.1101808139956404  5.5502361123500394  8.9558038389311196
  7.0226623296673605  3.6211568282144402  0.3719745708386401
  3.3005810187403202  0.6950950465454401  6.1263481103618407
  6.6229484722115597  5.7067804866114402  2.5857544805832799
  5.1038179047848802  6.0851056402626407  0.3888735564106001
  3.1859027674932006  6.6699061130259611  2.6447779789890005
  2.7126894419907606  5.8299323213586804  0.4313752996493600
  3.7571327276511606  1.5627405875794400  5.1021738046004401
  5.8669504353032407  3.5618774375146800  2.6879976567282000
  6.6635125519631204  4.5530118751667601  3.3911074705377198
  5.8034648995718401  3.9908254546270405  1.2568772842181200
  4.9287634329156003  2.6273586756170402  3.0641220742125199
  5.8016735494500002  5.5125205644263611  1.4156237474726800
  4.4317048792112006  2.1567460025425600  4.2277917090098400
  1.8083144593276401  8.9054147022257197  8.6146536230094011
  2.0655154566982001  5.1563158895336807  9.8404094508468010
  8.7952663377453995  7.5025026307977205  5.9760979164634804
  7.5829417854700800  7.3259350747660399 -0.1673367020054400
  9.0426536210901602  7.8887499351446007  7.6583587286732797
  1.2669475149193201  4.4458011209216801  9.9647638440934010
  7.1338836935148402  7.5107969127839604  2.0454309814910800
  0.6658855499526001  0.2220638322730000 10.7095246815386798
  2.1240668187322003  3.3636769405030797  7.1141652098482400
  2.8324952170297601  9.4050171937178799  4.0746113974525597
  4.9626371623312000  5.9319701800997198  5.8672118429659603
 10.3271697705900394  2.8212535428336398  1.3213014732607202
  3.4082961690607201  8.8818268232076409  1.0026527127906801
  8.5194062237490407  8.2786582995958398  4.8344653014495602
  5.3643674593891211  8.3899312789690796  5.3416122969781608
 -0.0266216439827600  9.1838012713317614  3.0626127363382802
  2.6363639198452002  5.0312245181551605  5.2958904109387603
  4.4840925565864005  2.9040422445636800  7.6624258447887605
  6.6029873123230409  7.4244946090140802  8.9015677846032002
  9.4746394616460403  6.6638824979189204  3.0227856347186401
  0.7117513558954801  2.3562899601137604  8.9678916539336004
  8.9681964561008414  9.0649270732818810  8.7429118566458399
  0.6565799782902800  8.8936718579246410  5.3755336875042401
  6.6197350935423209  0.3882897598390000  5.1454517579332402
  7.7500176001306000  1.5593018072392399  2.0066866612132404
  6.3475406184469607  4.5197456688144397  8.0578842310854810
