chf_slab_anneal_275
 1.0000000000000000
    11.7567382899999995    0.0000000000000000    0.0000000000000000
     0.0000000000000000   11.7567382899999995    0.0000000000000000
     0.0000000000000000    0.0000000000000000   30.8378255259999996
 C   F   H  
  67  67  10
Cartesian
  8.7697000000000003  0.2786200000000000 12.3848500000000001
  8.5634300000000003  9.5575100000000006 12.5045099999999998
  4.9500799999999998 10.0035399999999992 14.6861700000000006
  7.3872299999999997  6.7112900000000000 10.8616700000000002
  2.0538699999999999 11.5836100000000002 10.5279000000000007
  6.0619399999999999  9.8014899999999994 13.8136600000000005
  6.4136400000000000  8.6083499999999997 13.0286899999999992
  7.7509800000000002  8.4615299999999998 12.5762400000000003
  1.4250300000000000  3.4606100000000000  3.5192500000000000
  2.0660599999999998 10.0885300000000004  3.1224699999999999
  6.0475199999999996  5.0104199999999999  9.0343999999999998
  0.3567900000000000  1.7935099999999999 10.7042099999999998
  1.0505199999999999  4.1077199999999996  4.7844199999999999
 10.1473600000000008  9.7771699999999999  3.6771099999999999
  3.5660799999999999 11.1072000000000006  4.7461900000000004
  6.0740400000000001  5.2164200000000003  6.5484600000000004
  5.9258699999999997  3.3393000000000002 10.7780500000000004
  9.6136599999999994  2.3948399999999999 11.7298399999999994
  8.8327100000000005  4.9781599999999999 11.7777799999999999
  5.4372100000000003  6.3729100000000001  9.3249300000000002
  5.8563799999999997  9.8445499999999999  3.4377800000000001
  1.2411600000000000  5.4096299999999999  4.7115600000000004
  5.4228500000000004  7.6382700000000003 12.7245500000000007
  4.7308199999999996  9.0536499999999993  3.9955900000000000
  1.5958399999999999  6.1479999999999997  3.3996300000000002
  1.2078100000000001  2.8912800000000001 10.3183100000000003
  8.0527300000000004  7.1937800000000003 11.9547699999999999
 10.9576799999999999  7.9517899999999999  8.3805599999999991
  0.3868000000000000  4.3434499999999998 13.7269400000000008
  6.6382000000000003  4.3663299999999996 10.2299500000000005
  1.5652699999999999 11.4809599999999996  6.3144799999999996
  1.2585500000000001  4.5289400000000004 12.5525900000000004
  7.5260199999999999  3.3678100000000000 13.6623400000000004
 10.9576300000000000  2.2758699999999998 11.2583599999999997
  0.7184700000000001  4.1886200000000002 11.0558200000000006
  1.3223900000000000  3.4231400000000001  6.0793499999999998
  5.8586799999999997  4.9161900000000003  5.2333100000000004
  4.5301600000000004  1.5127999999999999  4.7980099999999997
  4.9613800000000001  6.8034200000000000 11.9553200000000004
  6.0343799999999996  2.4187799999999999 11.9530200000000004
  5.1961300000000001  2.4731999999999998  4.1258200000000000
  2.2648299999999999  2.3378000000000001  7.9240899999999996
  4.3486099999999999  6.3951500000000001 10.6625200000000007
  6.5538400000000001  7.3878899999999996  9.8184400000000007
  3.2931599999999999  9.7569099999999995  4.2125199999999996
 11.1090099999999996  3.7169099999999999 11.3323599999999995
  7.8670900000000001  5.2528699999999997 10.6129700000000007
  6.9174800000000003 10.8860299999999999 13.6900899999999996
  2.3604699999999998  2.4509900000000000  6.5603600000000002
  0.0894200000000000  5.3609600000000004 14.5653799999999993
  6.1670199999999999  4.4786400000000004  7.8050800000000002
  8.9232300000000002  6.1833000000000000 12.5024499999999996
  9.2791800000000002 10.2366399999999995  4.5716299999999999
  8.1257900000000003 10.8765900000000002 12.8976500000000005
  9.7579200000000004  3.9186800000000002 11.6727200000000000
  5.9073700000000002  3.7250899999999998  4.2099799999999998
 10.1785300000000003  8.2736000000000001  3.4504899999999998
  4.6383999999999999  0.2057900000000000  4.1096199999999996
  6.5970199999999997  0.4131300000000000  3.1527500000000002
  2.7161100000000000  0.1771900000000000  5.5016299999999996
  7.3503100000000003  2.4565199999999998 12.7152100000000008
  4.7653499999999998  9.4327500000000004 15.8384499999999999
  3.1866900000000000  1.4556899999999999  5.6756500000000001
  1.0253900000000000  0.7445100000000000  9.8739200000000000
  8.5349799999999991  1.6361699999999999 12.2965000000000000
  1.7509600000000001  2.1265800000000001  9.1431799999999992
  5.8145100000000003 11.2419399999999996  3.7063000000000001
  6.7664600000000004  4.5024100000000002 13.8700700000000001
  8.7401000000000000  5.3167900000000001  9.4841999999999995
  6.2715899999999998  3.0663800000000001  7.6120400000000004
  5.8169599999999999  1.0669700000000000 11.5472500000000000
  2.7223099999999998  8.9452800000000003  5.2429399999999999
  4.7522000000000002  6.8531399999999998  8.2593899999999998
 10.6495700000000006  3.4502100000000002  3.4383400000000002
  3.7404299999999999  5.1176500000000003 10.6290499999999994
 10.8213699999999999  5.6913499999999999  3.8022399999999998
  4.8086200000000003  2.9950000000000001 10.0396099999999997
  2.9044800000000000  5.5709200000000001  3.1012800000000000
  1.2891600000000001 10.7201699999999995 11.3431999999999995
  9.6887000000000008  6.4172799999999999 13.6252499999999994
 10.2187199999999994  8.9034899999999997  7.6941800000000002
  1.6874499999999999 11.4237699999999993  3.1589600000000000
  1.2465999999999999  6.1852600000000004  5.8345900000000004
  6.6351199999999997  0.2646800000000000 14.3555399999999995
  0.5957000000000000  6.6333700000000002 14.5551100000000009
 10.5242199999999997  7.9288200000000000  9.6544899999999991
  9.4111399999999996  2.0741999999999998  4.8978599999999997
  8.5664599999999993  3.4140500000000000 14.5850100000000005
  6.0322500000000003  6.0838000000000001  4.5503400000000003
  5.2575200000000004  8.8577600000000007  5.3043800000000001
  9.2885899999999992  7.7172999999999998  4.4155400000000000
  0.5649700000000000  8.2448899999999998  8.4269599999999993
  3.6952500000000001  9.8111499999999996 16.5448099999999982
  4.6348900000000004  7.8770100000000003  3.2910100000000000
  2.3536199999999998  3.5757200000000000 12.7228200000000005
  7.2394900000000000  3.1775500000000001  4.2955399999999999
  1.1031000000000000  2.1118500000000000  3.2602600000000002
 11.6718600000000006  3.0983900000000002 14.0354299999999999
  0.5426100000000000  0.6436600000000000  6.1676200000000003
  5.5772500000000003  8.5539199999999997 16.4367699999999992
  0.0037900000000000 11.7353000000000005  9.2867700000000006
  8.1350700000000007  9.7534399999999994  4.9330699999999998
  9.8337500000000002  9.4251100000000001 11.9505499999999998
  2.8207700000000000 10.7553500000000000  9.7433499999999995
 10.0448299999999993 11.7091300000000000 11.8126599999999993
  0.6143400000000000  3.9012600000000002  7.1575699999999998
  2.0663100000000001 11.3794500000000003  7.5578900000000004
 11.1027000000000005  5.0782999999999996 15.6253799999999998
  7.5165300000000004  7.1950399999999997  3.1296900000000001
  2.9207200000000002  0.5642700000000000 11.3072700000000008
  9.2494099999999992  4.6873399999999998  1.4817700000000000
  3.1596899999999999  3.3497900000000000 20.4712700000000005
  7.8234599999999999  0.3610300000000000  3.0828700000000002
  5.9239800000000002  4.4525499999999996  3.0334599999999998
 10.7364099999999993  6.7538700000000000  7.7767099999999996
  5.8991800000000003  8.5042600000000004 10.3321799999999993
  6.4960300000000002  6.5538299999999996  6.6470300000000000
  9.6198700000000006 11.1630500000000001  5.4962499999999999
 11.4967400000000008  7.8052900000000003  3.5895299999999999
  1.7316300000000000  5.8472900000000001 12.5792000000000002
 10.9127200000000002  0.9394100000000000  3.1445699999999999
  8.4943100000000005  5.2748900000000001  4.7328700000000001
  4.8946399999999999  2.7355700000000001 12.7970900000000007
  3.3452700000000002  7.3054300000000003 10.3045600000000004
  0.7519100000000000  5.4011800000000001 10.3202400000000001
  6.8603300000000003  0.3024900000000000  6.6180000000000003
  0.9530300000000000  9.5372299999999992  3.5382400000000001
  4.1954399999999996 11.1843199999999996 14.3783999999999992
  8.8986999999999998  1.6300300000000001  7.1503300000000003
  2.7728799999999998  3.3200500000000002  3.5289899999999998
  7.3129400000000002  7.8143799999999999  8.7884300000000000
  2.0050200000000000  7.4234299999999998  3.6622100000000000
  0.9014900000000000 10.2973599999999994  6.0761300000000000
  5.7171300000000000 10.7292199999999998  8.6966099999999997
 10.6346299999999996  4.4501799999999996  3.4434000000000000
  7.6365400000000001  0.8985800000000000  7.0277300000000000
  8.5590899999999994  5.0843499999999997  3.7386900000000001
  7.2558199999999999  8.1596700000000002  3.0585100000000001
  3.4802000000000000  4.3053100000000004 20.4261499999999998
  9.9611199999999993  1.5695800000000000  4.3166200000000003
  9.5756599999999992  4.1174299999999997  2.1611899999999999
  8.9022699999999997  1.8852599999999999  6.1731999999999996
 11.0946700000000007 10.2610700000000001  3.4907599999999999
  6.2280800000000003 11.0498700000000003  7.8486599999999997
