C  F  H 
 1.0000000000000000
    13.3046455009999995    0.0000000000000000    0.0000000000000000
     0.0000000000000000   13.3046455009999995    0.0000000000000000
     0.0000000000000000    0.0000000000000000    8.8697636679999992
 C   F   H  
  70  70   4
Cartesian
  6.0880200000000002  6.3709699999999998  2.5024500000000001
  1.4858000000000000  5.7574300000000003  4.3566900000000004
  2.0456799999999999  5.7827700000000002  3.0833599999999999
 11.4071800000000003  3.8696799999999998  0.0356500000000000
  3.3813200000000001  4.9730999999999996  0.6212600000000000
  0.8891100000000000 12.3315900000000003  2.0419999999999998
  2.8729700000000000  4.9883400000000000  6.4164700000000003
  2.7921200000000002  4.5575700000000001  2.9007200000000002
  3.0464699999999998  3.9699300000000002  4.2128100000000002
  9.0200700000000005 13.0962700000000005  8.4025800000000004
  9.8319799999999997  0.5312600000000000  3.1058900000000000
  1.9259299999999999  6.6476100000000002  1.9119400000000000
  8.1635399999999994  2.2124199999999998  4.8561100000000001
  8.9223599999999994  8.9095099999999992  0.9940800000000000
 10.3802299999999992  5.0801999999999996  0.1975700000000000
 12.7610200000000003  4.0705999999999998  0.8950700000000000
  6.0154800000000002  1.0133799999999999  1.4859400000000000
  0.8976100000000000  3.7645599999999999  5.5807399999999996
 10.7673699999999997  7.5511999999999997  8.5802899999999998
  3.9322499999999998 11.4074799999999996  3.4039400000000000
  4.3845099999999997  2.9484900000000001  6.1142500000000002
  9.6761999999999997  4.5983999999999998  2.6283300000000001
 10.2123500000000007  7.9761699999999998  1.0887000000000000
  8.6476500000000005  0.2061200000000000  2.0893000000000002
  8.7643199999999997  3.3982700000000001  5.1324500000000004
  6.6843800000000000  2.0204800000000001  5.0900999999999996
  4.1850899999999998  7.0687600000000002  6.5460599999999998
  3.7820100000000001  4.0675499999999998  6.8862800000000002
  4.9213399999999998  1.8793700000000000  1.2411099999999999
  4.1135700000000002  4.9294300000000000  8.1593999999999998
 11.8662600000000005  7.3929299999999998  6.4996900000000002
 11.8764000000000003  9.7211499999999997  7.5773000000000001
 11.6997400000000003  3.6339600000000001  7.4385000000000003
  2.4776899999999999 11.1061499999999995  3.5216500000000002
  4.7320700000000002 10.1083099999999995  3.0972700000000000
  9.9441799999999994  5.5148999999999999  1.5202500000000001
 10.5172600000000003 12.4624199999999998  3.6051799999999998
  0.7972100000000000 13.2488700000000001  7.1745799999999997
  1.1101799999999999  0.4107400000000000  2.6503600000000000
  9.4393499999999992  6.7626499999999998  3.3529900000000001
  5.9898199999999999  3.0320600000000000  6.1784699999999999
  6.7423400000000004 13.2817600000000002  0.5775500000000000
  8.7383400000000009  1.2630900000000000  3.9144600000000001
  9.2607199999999992  5.4385599999999998  3.8021600000000002
 10.8012099999999993  6.1693499999999997  8.1794600000000006
  2.1252200000000001  4.6617499999999996  5.1619299999999999
  6.5011700000000001  1.1349700000000000  2.7815400000000001
  4.8381400000000001  2.6509999999999998  3.5006699999999999
  7.7850599999999996  0.6913400000000000  3.0161699999999998
  3.4418000000000002  4.0018000000000002  1.8144300000000000
  2.6453199999999999  6.1309100000000001  0.7000300000000000
 12.1578499999999998  4.8411999999999997  6.6959900000000001
  3.3565299999999998  6.1346499999999997  7.3221800000000004
  1.5961399999999999 11.2103199999999994  2.3460500000000000
 13.0969499999999996  4.8190200000000001  5.7112499999999997
  5.9640100000000000  1.9400200000000001  3.7832499999999998
  8.2011000000000003  0.0103000000000000  0.8007800000000000
 11.4538700000000002  8.3018999999999998  7.5926999999999998
  1.9043000000000001 11.0674799999999998  4.7415500000000002
  4.3615599999999999  2.8418700000000001  2.1800000000000002
 11.4912100000000006  6.0548500000000001  6.9827300000000001
  9.0965500000000006  4.5961699999999999  4.8990700000000000
  9.8321400000000008  6.7929199999999996  1.9452100000000001
  7.5505699999999996  8.3988600000000009  6.4775299999999998
 13.0701999999999998  8.4584899999999994  4.4930899999999996
  9.5058799999999994 11.4968800000000009  4.2156300000000000
  4.1075799999999996  3.2496900000000002  4.6437099999999996
 12.7723099999999992  7.2441100000000000  5.4190100000000001
  0.2007900000000000  6.0240499999999999  5.0362799999999996
  2.4069900000000000  6.8331299999999997  8.3107000000000006
 13.2222799999999996  9.5751399999999993  7.0622699999999998
  1.3228400000000000  1.3039300000000000  1.5726700000000000
  8.4860900000000008 11.1237999999999992  3.4242900000000001
  5.5281099999999999  5.2144599999999999  8.4118300000000001
 10.9043100000000006  2.6176900000000001  0.4752600000000000
  4.1668200000000004  1.8533800000000000  0.1165600000000000
  8.5501100000000001 11.9503299999999992  7.6622300000000001
  5.0631399999999998  7.1258200000000000  2.0709700000000000
 10.5457199999999993  3.1390500000000001  6.8634000000000004
 12.9110700000000005  8.0369499999999992  3.1231000000000000
  3.5436999999999999  7.7848400000000000  5.5714899999999998
  6.2003100000000000  4.3244699999999998  5.5937000000000001
  6.7855999999999996  7.0672300000000003  3.4776799999999999
  2.2734000000000001  0.7147800000000000  3.4004200000000000
  6.0436699999999997 10.4572900000000004  2.8613300000000002
  6.5380099999999999  0.4537500000000000  8.1269700000000000
  5.3198299999999996  6.5316400000000003  5.9036400000000002
  8.5847899999999999  3.6984900000000001  2.2118300000000000
  2.5718999999999999 10.9168299999999991  5.8251600000000003
  6.2190899999999996 11.9031300000000009  0.5151500000000000
  8.3199900000000007  9.0637799999999995  2.2091300000000000
 11.0554699999999997 11.9072700000000005  2.4653200000000002
 12.9564599999999999  3.0187599999999999  1.7797900000000000
  5.8653199999999996 10.6380300000000005  7.0105000000000004
  9.0750499999999992  0.8491900000000000  7.4961900000000004
 11.4211299999999998 12.6761099999999995  4.6020500000000002
  7.9589200000000000  8.3454400000000000  0.1815100000000000
  9.2591199999999994 10.1747599999999991  0.5255300000000001
  0.0894200000000000 12.4591600000000007  0.9620000000000000
 10.9212699999999998  1.2738400000000001  2.6661800000000002
  4.1074700000000002 12.1544200000000000  2.3339599999999998
 11.2262599999999999 10.4898299999999995  6.6497000000000002
 10.6351099999999992  3.7114400000000001  3.0555800000000000
  1.0415099999999999  0.2356100000000000  5.9279799999999998
  6.6927000000000003  2.9965500000000000  7.3609400000000003
  0.5950000000000000 11.1187299999999993  5.0147500000000003
  2.6053099999999998  7.8415600000000003  2.4348299999999998
  8.9652399999999997 12.0434800000000006  5.3711500000000001
  7.6944800000000004  6.9959300000000004  6.4605499999999996
  5.7280199999999999  5.1766100000000002  3.1139899999999998
  6.7570199999999998  0.6727100000000000  5.6069300000000002
 12.2577099999999994  9.5105100000000000  4.5301000000000000
 10.2866599999999995 12.8040699999999994  8.8574500000000000
  4.5246899999999997 12.0043000000000006  4.5491200000000003
  0.9972500000000000  6.5622900000000000  8.0111000000000008
  3.6919000000000000  1.6564700000000001  6.3816800000000002
  1.2697499999999999 11.9551800000000004  7.5183499999999999
  1.5662000000000000  0.8327400000000000  7.8789199999999999
 12.7809100000000004 13.2426999999999992  7.2910100000000000
 12.6536100000000005  5.1708499999999997  1.7088000000000001
  1.2113700000000001  3.1042000000000001  6.7403399999999998
  8.8823399999999992  8.8269400000000005  6.6941600000000001
 10.2451200000000000 10.3068799999999996  4.3588800000000001
  1.3729499999999999 10.1176300000000001  1.4866100000000000
  0.6072700000000000  2.7508699999999999  4.6562500000000000
 12.0184400000000000 10.2194400000000005  8.8151899999999994
 11.0308799999999998  8.9267199999999995  1.9511000000000001
  2.4052500000000001  8.2347699999999993  8.3561899999999998
  9.4855099999999997  7.9089600000000004  4.0362799999999996
  4.7651800000000000  8.0786599999999993  7.4056800000000003
  4.6920099999999998  9.1106099999999994  4.0257199999999997
 12.4806100000000004  2.4917699999999998  7.4402200000000001
  9.0135199999999998  4.6107899999999997  8.5265900000000006
  4.0199600000000002 12.6344999999999992  8.0074699999999996
  4.2526500000000000  9.5965299999999996  1.8592400000000000
  1.0788700000000000  8.8537099999999995  4.6092700000000004
  7.1923100000000000  8.8803699999999992  5.2652400000000004
  0.5723900000000000  4.2229500000000000  0.0455100000000000
  0.0696500000000000  0.9143000000000000  3.3872800000000001
  6.7624300000000002  6.1137800000000002  1.3448000000000000
  0.9175200000000000  7.0010599999999998  1.6273700000000000
  3.9108299999999998 12.0632400000000004  8.7946500000000007
  5.9526899999999996 11.5004299999999997  7.4436400000000003
  6.8087600000000004  8.7131900000000009  7.2231199999999998
