C  F  H 
 1.0000000000000000
    11.9177954350000004    0.0000000000000000    0.0000000000000000
     0.0000000000000000   11.9177954350000004    0.0000000000000000
     0.0000000000000000    0.0000000000000000    7.9451969560000002
 C   F   H  
  70  70   4
Cartesian
  5.5343900000000001  6.6084699999999996  0.2226400000000000
  2.1543299999999999  8.7287300000000005  3.4836499999999999
 11.3848000000000003  8.2043199999999992  3.3853900000000001
  8.9179300000000001  3.9696300000000000  4.8152299999999997
  0.8293500000000000 11.3806200000000004  4.5391800000000000
  3.8616700000000002  1.8960699999999999  7.2803599999999999
 10.1159700000000008  2.0583000000000000  3.6878899999999999
  2.2262400000000002  0.5070800000000000  2.9192100000000001
  0.6676600000000000  0.2153600000000000  6.7206099999999998
  9.5894499999999994  6.8661300000000001  2.7332399999999999
  0.4612200000000000  7.3914799999999996  2.6023600000000000
  1.7323299999999999  7.4526500000000002  3.4049399999999999
  8.4816800000000008  5.5339600000000004  0.2360500000000000
  9.8167600000000004  2.8058399999999999  4.7709900000000003
  6.2386799999999996 11.5557200000000009  7.5519900000000000
 10.7974200000000007  4.7637400000000003  7.6857800000000003
  0.6855400000000000  7.9848600000000003  1.2756000000000001
  2.7683300000000002  1.0074799999999999  7.0058900000000000
  0.4901100000000000  1.9922899999999999  4.1107399999999998
  8.6082000000000001 10.8145199999999999  6.9303999999999997
 10.9218200000000003  3.2292600000000000  5.5753500000000003
  4.7911000000000001  6.5089600000000001  6.8958800000000000
 10.1640700000000006  7.6609900000000000  3.7290299999999998
  1.3010600000000001  9.8372799999999998  2.8752700000000000
  7.3779899999999996  4.7328299999999999  0.9315300000000000
  1.3629700000000000  6.6323800000000004  5.5490300000000001
  5.9233200000000004  5.4204100000000004  1.0148100000000000
  1.9533700000000001  1.8755599999999999  3.5405099999999998
  9.7054100000000005  7.8324199999999999  5.0906099999999999
  1.2716400000000001  0.3165100000000000  5.5006000000000004
  0.2863700000000000  4.7492900000000002  2.4831900000000000
 11.7432400000000001  5.9795900000000000  2.2898999999999998
  2.2721600000000000  3.0923900000000000  2.6377600000000001
 10.3661600000000007  6.0224900000000003  1.8120799999999999
 10.8345699999999994 10.6281300000000005  5.8159000000000001
  1.6016400000000000  0.7388700000000000  7.6583199999999998
  0.0416300000000000  9.4115599999999997  3.7258599999999999
  2.3272800000000000  9.7593200000000007  0.6916000000000000
 11.6437899999999992 10.4760500000000008  4.6892800000000001
  1.5572200000000000  4.4047900000000002  3.0322900000000002
  1.5573100000000000 11.2423900000000003  3.2631700000000001
  5.6292099999999996  7.8074800000000000  0.8915800000000000
  8.9524399999999993  9.0040200000000006  5.5558800000000002
  2.2192599999999998  6.4283400000000004  4.3348399999999998
  5.8453799999999996  0.0215900000000000  5.1701199999999998
 11.4082200000000000 11.4682499999999994  6.7913800000000002
  5.4123599999999996  5.9559800000000003  2.3324199999999999
  9.8531200000000005  5.4032499999999999  0.7086300000000000
  5.8418500000000000  9.2226199999999992  0.6160800000000000
  4.9258300000000004  1.8469800000000001  6.3098500000000000
  7.6493000000000002 11.1393799999999992  7.7166100000000002
  9.0246999999999993  4.2237400000000003  6.2153600000000004
  9.9777400000000007  2.3329700000000000  7.5118499999999999
 10.1723700000000008  3.6514300000000000  6.7867400000000000
  1.0898699999999999  9.4308599999999991  1.5051699999999999
  6.5646100000000001  8.1582000000000008  3.3633000000000002
  4.5133999999999999  1.9336100000000001  4.7288199999999998
  6.0613799999999998  0.7122100000000000  6.4408099999999999
  5.4758199999999997  0.9380400000000000  4.1074000000000002
  5.6295900000000003  7.5129099999999998  2.3265099999999999
  0.2326200000000000  2.8612899999999999  5.1969399999999997
  5.4769699999999997 10.1879899999999992  7.3432399999999998
  3.0346199999999999  1.6541500000000000  4.5851199999999999
  3.1090499999999999  9.3369099999999996  4.4000599999999999
  9.4615299999999998 10.2297999999999991  6.1210199999999997
  2.2803100000000001  5.0815099999999997  3.9095100000000000
 11.3132699999999993  1.5542300000000000  3.4207000000000001
  8.2342300000000002  5.0577699999999997  6.8260500000000004
  6.6571400000000001  1.4735900000000000  3.2955000000000001
  2.4359000000000002  0.9965700000000000  5.6219799999999998
  9.6062700000000003  9.0201700000000002  0.9659400000000000
  7.2457399999999996  1.5338700000000001  6.6175499999999996
  1.4290700000000001  5.7427000000000001  6.5929799999999998
  9.2223600000000001  1.8840500000000000  2.7553700000000001
  8.3034099999999995  6.4501200000000001  2.8596200000000001
  5.5860500000000002  7.1433299999999997  6.0287499999999996
  1.4724800000000000  7.9242200000000000  6.0670000000000002
  2.5482300000000002 10.1463800000000006  5.3135800000000000
  0.0828000000000000 10.2723800000000001  0.9291199999999999
 11.4692900000000009  0.8459500000000000  2.2731300000000001
  1.7571500000000000  2.9292899999999999  1.3741800000000000
  3.5300400000000001  6.7193300000000002  4.5813400000000000
  4.0254200000000004  5.8611599999999999  2.2135199999999999
  8.4282100000000000  9.6433800000000005  4.4003300000000003
  5.9514199999999997  9.5534999999999997  6.2356999999999996
  1.2664700000000000  0.8801800000000000  0.9603699999999999
  4.3144900000000002  7.9733000000000001  2.7246299999999999
  9.0306800000000003  6.6924799999999998  5.4055499999999999
  1.2825500000000001  3.3726600000000002  5.8772700000000002
  5.6313000000000004  9.9676299999999998  1.7143299999999999
  7.1425500000000000  5.5413800000000002  6.2573800000000004
 10.9827200000000005  5.8422900000000002  6.8083700000000000
  3.6101500000000000  3.2504499999999998  2.6490999999999998
  0.1817700000000000  4.3769299999999998  0.1944400000000000
  8.9764099999999996  2.5028400000000000  0.4854500000000000
  7.5743999999999998  1.9268900000000000  4.2640900000000004
  3.3846200000000000  8.8950600000000009  0.9981000000000000
  3.2650100000000002  4.4164199999999996  4.5862400000000001
  7.2609599999999999  0.4539700000000000  2.7578800000000001
  5.5644999999999998  0.1448400000000000  0.7258800000000000
  1.6855100000000001  7.2481600000000004  0.5868200000000000
  0.1121600000000000  6.2076099999999999  4.9825299999999997
  9.6209799999999994  1.3117300000000001  6.7066400000000002
  3.1544900000000000  0.8125700000000000  2.0270400000000000
  3.6263100000000001  7.2691299999999996  6.9473000000000003
  4.0943699999999996  8.7777300000000000  5.0758000000000001
  4.4619299999999997  5.2872100000000000  6.5210600000000003
  5.0297799999999997  4.4073799999999999  0.7562500000000000
 10.7157599999999995 11.5504499999999997  0.0071400000000000
  9.6182400000000001  4.9579399999999998  4.1401300000000001
  6.9546200000000002  7.2751099999999997  4.4203200000000002
  4.9083699999999997  0.0795400000000000  3.1463899999999998
  9.6325299999999991 10.9210300000000000  2.4716600000000000
  7.9309900000000004  8.5326500000000003  6.3380200000000002
  2.6352600000000002  5.0081100000000003  0.5668400000000000
  4.3995499999999996  2.0805199999999999  0.5729600000000000
 11.3818699999999993  3.6532100000000001  2.1572600000000000
  7.6513499999999999  4.2331099999999999  4.3440799999999999
  7.8326599999999997  4.2688699999999997  2.1597599999999999
  2.8682799999999999 10.8691800000000001  1.1728700000000001
  4.5899299999999998 11.3460599999999996  5.3802099999999999
  3.3300500000000000  3.3199999999999998  6.8957300000000004
  7.3168699999999998  9.1804299999999994  0.4383000000000000
  7.9272799999999997  6.8618399999999999  0.2324900000000000
  3.8766099999999999 10.1295300000000008  3.5295700000000001
 10.8396299999999997  7.9386700000000001  5.8785800000000004
  2.0112700000000001  9.8577700000000004  7.3065400000000000
  5.7696300000000003  5.2957200000000002  3.4828999999999999
  6.0964999999999998  9.2772600000000001  3.9586500000000000
 11.5309399999999993  7.8773900000000001  0.3919100000000000
  4.1480100000000002 10.2952200000000005  7.2173299999999996
  5.6587899999999998  3.0026700000000002  6.6171699999999998
  8.0276399999999999 11.2132100000000001  1.0822300000000000
  7.6696700000000000  8.5215899999999998  2.6552699999999998
  5.0641900000000000  3.1672500000000001  4.4690500000000002
  6.8971200000000001 11.1944800000000004  4.8068999999999997
  9.0837299999999992 11.8535400000000006  4.5176200000000000
  6.2449000000000003  2.3660800000000002  2.2638199999999999
  7.1158500000000000  3.6488900000000002  0.1914300000000000
 11.1573200000000003  2.0739700000000001  0.1533300000000000
  9.4851899999999993 10.2238900000000008  1.7131300000000000
  2.7565599999999999  4.2607600000000003  7.9027000000000003
  9.0585500000000003  9.2911500000000000  0.0804300000000000
  9.1899599999999992 11.4680000000000000  3.5638500000000000
