Si O  C  H  F 
 1.0000000000000000
    13.4478320000000000    0.0000000000000000    0.0000000000000000
     0.0000000000000000   13.4478320000000000    0.0000000000000000
     0.0000000000000000    0.0000000000000000   13.4478320000000000
 Si  O   C   H   F  
  33  33  11  11  11
Cartesian
 11.3303100000000008 12.0586500000000001  5.8070000000000004
  7.4271099999999999  8.3267600000000002  3.3560699999999999
  3.4356200000000001  6.9805900000000003  9.1704000000000008
 12.9253699999999991  7.3394100000000000 12.7659000000000002
 11.7181499999999996  5.1130399999999998  5.5895700000000001
  9.7261500000000005  9.6500000000000004  9.9221800000000009
  8.5421600000000009  8.5821400000000008  1.1750499999999999
 10.3039600000000000  4.0388700000000002  7.3499800000000004
 11.7419399999999996  9.0250199999999996  0.7570600000000000
  6.6436400000000004  3.5163099999999998  8.2547999999999995
  7.2480099999999998  1.3960200000000000 13.1177200000000003
  9.5205500000000001 10.2248599999999996  4.1624900000000000
  8.9550099999999997  4.2832499999999998 10.1783500000000000
  8.6709300000000002 12.0460999999999991  8.8454499999999996
  1.4715000000000000  1.9839599999999999  8.5086399999999998
 13.1242000000000001  7.0448599999999999  5.5649199999999999
  5.8655200000000001  6.6897700000000002  8.2570200000000007
  7.3216400000000004  6.4576799999999999  5.6288700000000000
 10.9135200000000001 11.6186900000000009  8.1323699999999999
 11.6052599999999995  9.7265999999999995 11.3996099999999991
  7.7317299999999998  1.4108099999999999 10.3276400000000006
  7.5518999999999998  7.2651199999999996  9.8415499999999998
  1.4904500000000001  7.8008100000000002  8.2465299999999999
  7.0429300000000001 12.6351800000000001  0.7404100000000000
 12.7599400000000003 11.5440199999999997 10.4070599999999995
  8.1207700000000003  3.6300200000000000  6.4880500000000003
  6.2042500000000000  8.3120600000000007 12.5850799999999996
  9.1814400000000003  2.7076400000000000 12.2525700000000004
  4.3798800000000000  1.8943700000000001  7.3925099999999997
 12.9513599999999993  7.2159800000000001  9.6574500000000008
 11.8203600000000009  9.6153700000000004  4.0607300000000004
 12.6273900000000001  3.4530900000000000  6.7971100000000000
  2.8315299999999999  7.3203100000000001 12.4108900000000002
 11.3025900000000004  2.6823600000000001  7.4175800000000001
  6.6314000000000002  1.4336300000000000 11.5535300000000003
  9.2764699999999998  1.5290999999999999 11.1199800000000000
  6.0296300000000000  4.9999000000000002  8.4354700000000005
 11.9399999999999995 10.1904599999999999 12.9341799999999996
  4.4887800000000002  2.7038799999999998  6.0101500000000003
  8.6722400000000004 11.0063700000000004 10.1677099999999996
 12.2624300000000002  8.2830600000000008  4.8668800000000001
  1.0836800000000000  7.6792600000000002 12.3917699999999993
 10.6635600000000004  9.9647500000000004  8.6049600000000002
  9.9629100000000008  4.4473900000000004  8.8728200000000008
  6.0496200000000000  6.9931599999999996  6.6794300000000000
  2.9315400000000000  2.1994500000000001  7.8871300000000000
  0.8447700000000000  7.5371199999999998  6.6733500000000001
  3.0425300000000002  7.4809599999999996 10.6981699999999993
  7.7517199999999997 11.2741500000000006  7.7008099999999997
  7.5079599999999997  4.8113500000000000  5.5750799999999998
  8.3045700000000000  9.2214200000000002  4.4491399999999999
  7.1164199999999997  6.9906899999999998  4.1426800000000004
  8.8580000000000005  8.2775300000000005  9.6712500000000006
  5.5474399999999999  2.3271400000000000  8.4214500000000001
  8.2271199999999993  5.7667299999999999 10.2156400000000005
  6.3135000000000003  2.2777300000000000  0.6555400000000000
 12.2433300000000003 10.9972300000000001  5.0064500000000001
  0.4253400000000000  2.8861800000000000  7.5862800000000004
  7.6865399999999999  7.7993600000000001  0.0041600000000000
  6.4080800000000000  7.7723300000000002 10.9114799999999992
  7.7698099999999997  2.9409500000000000  9.5562600000000000
 10.1705600000000000  8.4381799999999991  1.0704600000000000
  1.2062200000000001  0.3982700000000000  8.3355800000000002
 11.9397099999999998 12.3126200000000008  9.1598299999999995
  6.4834300000000002 10.0731900000000003 12.3734500000000001
  7.9101699999999999  0.0491900000000000  9.4215599999999995
  8.5308200000000003  0.3027700000000000  3.6605200000000000
  8.0779200000000007  2.2064499999999998  5.5346099999999998
  7.1187100000000001 10.8710900000000006 13.2605199999999996
  8.9314499999999999 11.4480699999999995  2.9228600000000000
 11.9842300000000002  7.8685499999999999 11.1466600000000007
  9.0862700000000007 12.5128900000000005  3.8400099999999999
  8.0314399999999999 10.3083500000000008  0.7808400000000000
  8.2635100000000001  1.3191500000000000  4.6344000000000003
  8.3102999999999998 11.5234699999999997  1.7044900000000001
  9.6115899999999996 11.9873899999999995  5.1475799999999996
 12.6393299999999993  9.7188199999999991  2.2915299999999998
  8.9476200000000006 12.3960899999999992  5.9685899999999998
 12.7067899999999998 10.8038799999999995  2.0582799999999999
  5.5336100000000004 12.7114799999999999  1.2057400000000000
  6.7423900000000003 11.3953000000000007  7.6807699999999999
  6.1344799999999999  9.2071500000000004  3.0083299999999999
 10.9885300000000008  7.3282299999999996 11.2529000000000003
  5.5761799999999999  2.9263400000000002  0.8579400000000000
  0.2648300000000000  9.4243299999999994  2.3107000000000002
  0.2713300000000000  0.1158900000000000  8.0662099999999999
  4.8771300000000002  2.4893800000000001  5.1266999999999996
  8.0207899999999999  0.3840400000000000  2.7314200000000000
  4.4672400000000003  0.2350700000000000  7.2797000000000001
 12.8119599999999991  5.7866400000000002 13.0988799999999994
 10.5105799999999991  2.7559100000000001 13.1175899999999999
 11.9024199999999993  0.1719500000000000  5.5615100000000002
 13.2955000000000005 12.6796100000000003 11.4567200000000007
  0.8065900000000000  6.7556200000000004  4.3576100000000002
  0.7627900000000000 10.8295899999999996  9.8798100000000009
 13.1218800000000009  5.5484900000000001 10.0652100000000004
 11.8729499999999994  7.2052300000000002  8.4066299999999998
  1.4846100000000000  2.4072900000000002 10.0526400000000002
  8.6873699999999996  6.9757199999999999  6.1759399999999998
