 F Si 
 1.0000000000000000
    15.0000000000000000    0.0000000000000000    0.0000000000000000
     0.0000000000000000   15.0000000000000000    0.0000000000000000
     0.0000000000000000    0.0000000000000000   15.0000000000000000
 F   Si 
   4   1
Selective dynamics
Cartesian
  6.8839800000000002  7.5375600000000000  8.9093999999999998   T   T   T
  7.3229600000000001  8.7321100000000005  6.6018299999999996   T   T   T
  9.0067000000000004  7.3259100000000004  7.7275900000000002   T   T   T
  6.9199000000000002  6.1613199999999999  6.8292500000000000   T   T   T
  7.5000000000000000  7.5000000000000000  7.5000000000000000   F   F   F
