Si  O  C  H  F 
 1.0000000000000000
    13.6856679999999997    0.0000000000000000    0.0000000000000000
     0.0000000000000000   13.6856679999999997    0.0000000000000000
     0.0000000000000000    0.0000000000000000   13.6856679999999997
 Si  O   C   H   F  
  30  60   5   5   5
Cartesian
  9.4603867492864406  4.9395838897581994 11.2216568128557608
  2.0959403468380797  1.4756576995267199  3.9542580824723199
  1.4926425715114799 13.0688519323930397  3.1553253253658800
  5.9749952730803599  9.5074598360825586  6.0662120294371995
  3.1852156454179599 10.3611827544569604  2.9146419145138398
 12.0815392398269204  4.2890284079741594  1.1231824990466399
  2.5177788921559201  5.1027456553643198 13.3131237253946804
  4.9533765796819607  3.4583635136162001 13.6462109874458797
  1.2513205873905600  4.1889713943727198  2.3643517421981999
  1.2538343708888000 10.7622910710284803 12.8121668279453598
  5.7736057416198792  0.6981007241261600 13.8186773650118404
  4.7690042183827197  1.3379854905706001  5.3755467287354399
  8.4027696853508793 12.7048319129582001 13.2225700396524406
  1.5090117252929198  7.9859781406780792  0.2036542358011200
  6.4658695283440402 12.5607101961004002  6.4714023702030801
  1.6866764669920000  7.3649169157142005  3.4171937397118799
  6.3956981816675595 10.8068925261837983  8.9225617570985598
  3.9122823595794798 11.8512621372087210 13.7484015966885185
 13.0426293713649599 11.5606914556497209  1.4514864832751599
  7.9322265847546403 10.1383390224129606 11.3496678982006394
 10.3796235078035597 -0.4730644112118800  0.7282627046880400
  5.6987407582461200  2.4228132207638402  2.5293855703300401
 12.3415506458820001  6.7605827247499599 13.2640172220471211
 -1.1935028826476399  2.3580920545116801  9.4674307626060408
  9.8194418820842397  2.4092225312997599  1.9654043926038798
  7.5832275439465597  4.2718095110665999  1.2294725132819999
  5.1650844205310396  9.9235629916549595 11.4074969620480005
 11.6172131276330397  4.1951933096155605 11.8612203766722395
  9.7176883930775197  8.0210713411337196 12.5147123922390389
  8.0937656407059997  7.5204407100095203  1.5221580411170399
 -3.2037402919094000 27.2214955899117186  8.3394878408022812
  2.1376186801652799  4.2877530405732402  1.0028578322772801
 10.6460565029975989  1.1019370049001200  1.2781992393425599
 11.2706317969338397  7.9109264847928005 12.8619555618427199
 14.3534489478122396 -7.7254622809005200  8.7964570853060806
  4.7355749214425202 10.8543035121228399 12.6726202298999588
  8.3159216679330008  5.7417431799523202  1.1874119392475599
  4.3027753877668005  8.5465329745637604 11.0630919262741596
  4.4569329418256798  2.9798251089176802  1.4691448269822001
  9.8984322732199193 -0.3607858223730800 12.8104610462858410
  6.4234057745303197  4.1398458679466401 13.7371205005561201
  2.3859039321645996 11.9008839059564799 12.9669038331873612
  2.6117278552722798  0.5158035206657600  2.7227433938113599
 12.4427531498950401  5.6909417066229597 12.0622570916116807
 -2.8382824561944799 11.2573866705867598  8.8518045269749983
 13.4961394264250796  3.8476665729709199  1.7243221813863199
  2.0666411107869198  9.3206481413189994 13.2113510764527611
  2.1545915087621998 11.5721384220782788  3.5093116973065199
  7.7454548521416404 10.8180483984539997  9.8672717863207602
  5.1502457350020396 10.8848001072673188 10.0475756722369596
  6.2457042183843194  9.6482291117070798  7.8012509100075995
  6.5660716100262801  9.3494652312865192 11.7887705031304399
  7.0191958661054805 -0.0865307836336400 13.1673635603639205
  8.9684763520984792 12.5518254604348005  1.0713450206496800
  8.4369827604974397  3.8671674181608000 11.8711355062815596
  6.2621230511406001 11.1283268525030401  5.6250999578749603
  9.2087272958417206  9.1216794676710400 11.3394952043195598
 12.7781367301799591 10.3361323708930808  2.4970030901351596
  9.2695173908175601  6.5428296506319201 11.8066074448048788
 10.9153883963873994  3.6399891613478403  2.1261990850727197
  8.8282397226725191  8.2327806874062794 13.9534958384765986
 11.6690274772510794 12.2683011187589592  1.0322539628578800
 11.8179030477453590  3.6280533428583199 13.3721846362187193
  8.5626975276086004  2.9642144148567997  1.1288766949314000
  0.0263023484725200 10.8347242480553199  0.1804501857071200
  5.2476764689142792 -0.1291775148285200  5.8818963268034805
  1.6448477281734799  2.9459972853253200  3.3666626951822001
  5.2863097411114799  2.0433408504468797 12.9929332894399590
  1.4329021672712399  5.6696940227695594  3.1292819097319198
  5.3320547706848798  1.9385897895781201  3.9731050264451602
  6.2413543656671999  1.0596169506004001  1.7558739415336000
  9.3595625171369203 19.5644475527731601  5.1100665297475603
  2.5190196348167997  6.7415384334445596 13.5086317041754800
  0.3917187166134000 12.7373025288550004  2.0088061621023199
  0.0202836653994800  7.6134590477018804 -0.2625376435112000
  4.8345732117674798  5.8947073437616000  8.2536106846723207
  3.7184109129781198 11.0353128942244396  1.4795401866816400
 -2.6957163892182403  8.3280553811817999  5.1852528526059602
  0.9029038717558799  0.3541511473833600  4.3134398076991198
  5.2222003242189192  2.3609705610621199  6.5461712801874796
  3.9032277847739998  4.4373353389630399 12.8209231920451199
  6.7430698596937599  3.7297189698764797  2.6217664296069603
  3.1868883077609200  1.5126785263201599  5.1707402965454001
  6.2562353399103197 12.1813642813557603  8.0494110750013999
 12.5197495392031186  3.3118803347450001 10.7942620231865991
  1.5128112772997599  7.9958199151069200  1.8308790661476799
  4.6059805411667201 13.2541874910061193 14.0092153934584402
  8.1691222132743206 11.3827717499558005 12.3419432876969193
 12.0125611465433604  5.9611074677640001  0.9719718798782000
  5.5835677874819991  4.4155276375750798  9.9718200255897607
 -2.9691665738225996 12.4128737783773584  8.5947774176839999
 -1.6763875817895999  8.9720869050302401  4.9974845296492001
 14.7924474048085592 -8.3560381928280396  7.7820177564838007
  8.3802028399589599 19.1416109116880797  5.6456797811299602
  5.1526377160550805  5.0847135560641998  9.0855175534012798
  3.6208578291939602  8.2528051462538414 11.6881292483620793
  7.4437384257067603  4.0572636732443597 12.0567465573914792
  7.6499373746157993 13.4173388555045587  6.1514369266302795
  5.3811432089506805  3.2942100845067999  6.3984479060821196
 12.8536921555043193 10.3637865896506387  3.4702341883260401
  9.2364154550559192  4.7603775944155995  9.6382914007455600
  0.4071751731959200  2.2130007080760801  8.9885803246771196
  9.3764938781597991  1.9793198429696002  3.4622581810156396
  1.3951468306762398  4.9095338579605601 12.1510562747163195
  0.6744892516958000 10.7574512713969597 11.3202434382872799
