Si  O 
 1.0000000000000000
    10.1872159030000002    0.0000000000000000    0.0000000000000000
    -5.0936079510000001    8.8223877660000003    0.0000000000000000
     0.0000000000000000    0.0000000000000000   11.1535655499999997
 Si  O  
  24  48
Selective dynamics
Cartesian
 -1.2734000000000001  2.2056000000000000  3.7178599999999999   F   F   F
 -0.9614400000000000  2.3719500000000000  9.2034099999999999   T   T   T
 -3.7638600000000002  6.7724299999999999  3.7749400000000000   T   T   T
 -3.4561999999999999  6.7001200000000001  9.0364799999999992   T   T   T
  3.8733700000000000  2.2025199999999998  3.7404199999999999   T   T   T
  4.1082000000000001  2.1484600000000000  9.3183000000000007   T   T   T
  1.5191500000000000  6.6920299999999999  3.4982300000000000   T   T   T
  1.7652500000000000  6.5818700000000003  9.1604299999999999   T   T   T
  1.3458100000000000  2.3394100000000000  1.7731800000000000   T   T   T
  1.6082099999999999  2.6002800000000001  7.2856199999999998   T   T   T
 -1.2578600000000000  6.8505799999999999  2.0141700000000000   T   T   T
 -0.8422100000000000  6.7988700000000000  7.3058300000000003   T   T   T
  6.2985800000000003  2.3275199999999998  1.8097399999999999   T   T   T
  6.6310799999999999  2.2495900000000000  7.4028900000000002   T   T   T
  4.0183400000000002  6.8593900000000003  1.6149800000000001   T   T   T
  4.1645000000000003  6.6619999999999999  7.3907999999999996   T   T   T
  2.4630999999999998  0.0528700000000000 11.1173999999999999   T   T   T
  2.6781500000000000  0.1689800000000000  5.6614500000000003   T   T   T
  0.0220700000000000  4.6833799999999997 10.9887999999999995   T   T   T
  0.2508100000000000  4.5857500000000000  5.3068499999999998   T   T   T
  7.7961799999999997  0.1852300000000000 11.0583399999999994   T   T   T
  7.8836199999999996  0.0203000000000000  5.5961499999999997   T   T   T
  5.4330400000000001  4.5816400000000002 11.0083599999999997   T   T   T
  5.1245399999999997  4.5139399999999998  5.4843599999999997   T   T   T
  0.0704000000000000  1.8998600000000001  2.7916300000000001   T   T   T
  0.6002999999999999  2.3458000000000001  8.4950799999999997   T   T   T
 -2.4271400000000001  6.4523400000000004  2.9614300000000000   T   T   T
 -1.8225100000000001  6.4711900000000000  8.6446699999999996   T   T   T
  5.1055299999999999  1.9936499999999999  2.7667999999999999   T   T   T
  5.5769299999999999  2.0790000000000002  8.5884800000000006   T   T   T
  2.8253499999999998  6.3071999999999999  2.5383599999999999   T   T   T
  3.2421199999999999  6.3886700000000003  8.6484600000000000   T   T   T
  0.9019900000000000  3.6470500000000001  0.9556800000000000   T   T   T
  1.4898700000000000  3.9893000000000001  6.3880100000000004   T   T   T
 -1.6983900000000001  8.1585300000000007  1.0523400000000001   T   T   T
 -1.5804700000000000  8.1430699999999998  6.7831400000000004   T   T   T
  6.2984600000000004  3.7935800000000000  0.9585500000000000   T   T   T
  6.2222900000000001  3.5794800000000002  6.5422300000000000   T   T   T
  3.7139600000000002  8.4175400000000007  1.1092000000000000   T   T   T
  3.7054299999999998  8.1707599999999996  6.8501099999999999   T   T   T
 -0.7696100000000000  3.4994600000000000  4.6572100000000001   T   T   T
 -1.0718399999999999  3.9028399999999999 10.1425599999999996   T   T   T
 -3.4543699999999999  7.9736599999999997  4.8925400000000003   T   T   T
 -3.6238999999999999  8.0688099999999991  9.9980300000000000   T   T   T
  4.3575299999999997  3.2614999999999998  4.8353500000000000   T   T   T
  4.5168600000000003  3.2764799999999998 10.4451900000000002   T   T   T
  1.9836100000000001  7.5559399999999997  4.7673100000000002   T   T   T
  1.9308700000000001  7.7896700000000001 10.1708099999999995   T   T   T
  2.6454499999999999  2.5555800000000000  2.7348499999999998   T   T   T
  3.0867499999999999  2.4897499999999999  8.0389999999999997   T   T   T
  0.2804300000000000  7.1531900000000004  2.5806300000000002   T   T   T
  0.5881999999999999  7.0090000000000003  8.0730199999999996   T   T   T
  7.5295500000000004  2.5361899999999999  3.0181200000000001   T   T   T
  8.1712500000000006  2.3580399999999999  8.0317399999999992   T   T   T
  5.3361299999999998  7.1480300000000003  2.5438600000000000   T   T   T
  5.7138499999999999  6.9259300000000001  7.8237600000000000   T   T   T
  1.4557700000000000  1.1624399999999999  0.6935800000000000   T   T   T
  1.6538999999999999  1.2574399999999999  6.2709400000000004   T   T   T
 -0.8227100000000001  5.6917900000000001  0.8943000000000000   T   T   T
 -0.6663000000000000  5.6791700000000001  6.0907099999999996   T   T   T
  6.8858699999999997  1.2165400000000000  0.8451800000000000   T   T   T
  6.8885600000000000  0.9605100000000000  6.3334799999999998   T   T   T
  4.3267699999999998  5.7783600000000002  0.4902600000000000   T   T   T
  4.1292900000000001  5.5214299999999996  6.2805499999999999   T   T   T
  3.4008699999999998  0.7320900000000000  4.2898300000000003   T   T   T
  3.4915300000000000  0.9079300000000000 10.1177100000000006   T   T   T
  0.8863799999999999  5.2237600000000004  3.9739200000000001   T   T   T
  1.2058899999999999  5.3907499999999997 10.0747599999999995   T   T   T
  8.7700399999999998  0.7961900000000000  4.6398099999999998   T   T   T
  8.6882900000000003  1.2324299999999999 10.1696299999999997   T   T   T
  5.8361900000000002  5.3538899999999998  4.3687199999999997   T   T   T
  6.2647800000000000  5.3786399999999999  9.9845600000000001   T   T   T
