Si O  F 
 1.0000000000000000
    14.1679060000000003    0.0000000000000000    0.0000000000000000
     0.0000000000000000   14.1679060000000003    0.0000000000000000
     0.0000000000000000    0.0000000000000000   14.1679060000000003
 Si  O   F  
  20  20  60
Cartesian
  3.4067699999999999 10.1664600000000007  4.7666100000000000
 10.2657799999999995 12.5561100000000003 12.7463099999999994
  8.3204799999999999  0.8864900000000000  3.8917099999999998
  7.4974999999999996  7.3081699999999996 12.3752800000000001
 12.4422400000000000  8.4012499999999992  1.1555400000000000
  0.7651100000000000  0.2859400000000000 10.4846800000000009
  7.8173100000000000  6.6986299999999996  4.1939900000000003
  5.4809000000000001  1.2419100000000001  5.0793299999999997
  8.6560000000000006 10.6109200000000001  8.5231899999999996
  6.0161400000000000  9.9788099999999993 13.3442699999999999
  9.6496499999999994 12.2071600000000000  3.3697400000000002
  3.8970600000000002  3.8861500000000002  9.5393500000000007
 12.4923699999999993  0.8982300000000000  6.5670700000000002
  0.3299300000000000  9.4445999999999994  5.1940600000000003
 11.0409400000000009  2.4219499999999998  4.2876500000000002
  2.2044100000000002  6.3383200000000004  1.0089699999999999
  2.7408100000000002  1.6010800000000001  0.4673100000000000
  0.4192700000000000 13.7363999999999997  1.0574200000000000
  2.7530399999999999  9.0915199999999992  9.5378799999999995
  0.1956800000000000 10.4008099999999999  8.0558999999999994
 12.9828399999999995  4.4658300000000004  9.2657000000000007
  6.9350500000000004  0.7925500000000000  4.7045700000000004
  5.2118900000000004  3.3417300000000001  3.3045700000000000
  1.3720500000000000  0.7764600000000000  0.6950200000000000
 13.0353700000000003  6.4632600000000000  7.8669000000000002
  1.0366200000000001  5.7986700000000004  9.0847999999999995
  7.8142100000000001  5.0048199999999996  4.4396199999999997
  1.3152900000000001  9.6170000000000009  9.0289199999999994
  7.1965199999999996  4.6698599999999999  3.1774800000000001
  0.0379200000000000  6.2945000000000002  9.7436100000000003
 13.9995499999999993  3.9800700000000000  8.5522399999999994
  8.8531800000000000 13.5062899999999999  3.9346700000000001
  7.1033099999999996  8.8339999999999996 12.9468300000000003
  5.5699100000000001  4.5883000000000003  3.3244600000000002
 12.0971799999999998  1.6801299999999999  5.1852000000000000
  1.8569000000000000 10.0408399999999993  5.3003600000000004
 13.8230100000000000  9.6513600000000004  6.7119499999999999
 13.9970099999999995  5.6823800000000002  7.2755999999999998
  9.4906299999999995  1.8374600000000001  4.4337900000000001
  5.2353699999999996  2.8372000000000002  4.9512900000000002
 13.9129000000000005  0.2637900000000000  6.3121499999999999
 13.1294799999999992  0.1242800000000000  1.4809800000000000
  6.9019000000000004 11.2383199999999999 13.8590300000000006
  0.3201100000000000  8.0190099999999997  4.6153599999999999
  8.9448699999999999 12.1600500000000000  8.1799199999999992
  9.9615500000000008  9.7040799999999994  8.1201600000000003
  2.9665200000000000  2.5368900000000001  1.8106700000000000
  0.5807700000000000  6.3995400000000000  1.2763500000000001
  7.7318699999999998  6.4304199999999998 13.6660400000000006
  0.2721100000000000  0.6379200000000000 11.9876400000000007
  8.6858000000000004  7.3553199999999999  5.3187100000000003
 13.4421700000000008  8.4353400000000001  2.4064100000000002
 12.5516000000000005  1.8620699999999999  7.7945099999999998
  3.8405000000000000 11.4076199999999996  3.8627400000000001
  3.7833000000000001  8.8584599999999991  3.9227699999999999
 11.0402199999999997  8.7913999999999994  1.7177300000000000
  4.4401400000000004  0.5300700000000000  4.0992400000000000
 12.2851800000000004  7.0781900000000002  0.3874800000000000
 10.8491999999999997  3.9403000000000001  4.7829600000000001
 11.4406300000000005 12.8306000000000004 11.7525399999999998
  3.1557700000000000  7.5746500000000001  1.4753700000000001
  3.0505200000000001  3.8173499999999998 10.8809500000000003
  2.8521899999999998  3.4800300000000002  8.3358299999999996
  4.9754399999999999 10.1549800000000001 12.1260399999999997
  4.2509800000000002 10.1464099999999995  6.0909899999999997
 10.5522500000000008 13.0836400000000008  0.0428400000000000
  2.6289400000000001  2.7277600000000000 13.5221499999999999
  8.7828900000000001  7.3241500000000004 11.4521800000000002
  7.9899800000000001  1.5097900000000000  2.4429699999999999
  5.1179199999999998  2.8821300000000001  9.7477199999999993
  0.5990900000000000 11.8433600000000006  7.5463699999999996
 13.8377900000000000 10.3545099999999994  4.1360400000000004
  2.2547600000000001  6.0487500000000001 13.5704700000000003
  1.8781300000000001 13.3595699999999997 10.4160699999999995
  3.4180999999999999  7.9878400000000003  8.5475899999999996
  9.0387599999999999 11.7163799999999991  2.0495299999999999
  7.3650200000000003 10.1925799999999995  7.6486099999999997
 13.7584499999999998 13.8925699999999992  9.6124899999999993
  3.7085200000000000 10.3367199999999997  9.7998799999999999
  6.3899600000000003  7.3445000000000000  4.3549699999999998
  1.2109200000000000  1.6829499999999999  9.9184000000000001
  8.4642800000000005  7.0082100000000001  2.7063400000000000
 11.1066199999999995 12.7002400000000009  3.0028899999999998
  8.2314699999999998 10.3638800000000000 10.1322100000000006
  5.0523400000000001  9.5858699999999999  0.3164000000000000
  2.4689000000000001  8.1635000000000009 10.8826999999999998
  4.0502500000000001  0.5937900000000000  0.3187900000000000
  6.2475399999999999  6.9671300000000000 11.5262700000000002
 13.0834399999999995 10.5998000000000001  8.9660799999999998
  5.1321500000000002  0.8679400000000000  6.6058199999999996
  8.8485600000000009 13.0573999999999995 12.2227099999999993
  0.1979500000000000 12.6967800000000004 14.0406399999999998
  4.6498499999999998  5.2338899999999997  9.1007700000000007
  2.8481399999999999  5.0242899999999997  1.8046599999999999
  9.6671899999999997 11.1125600000000002  4.5099400000000003
 11.5384700000000002  2.3183500000000001  2.7680099999999999
  1.0692600000000001 12.9316899999999997  2.2811599999999999
 12.9434799999999992  9.5270399999999995  0.0769600000000000
 10.1525999999999996 10.9806899999999992 12.9082200000000000
 11.3636999999999997 13.8739699999999999  6.7847900000000001
