chf_slab_melt_75
 1.0000000000000000
    11.0399999999999991    0.0000000000000000    0.0000000000000000
     0.0000000000000000   11.0399999999999991    0.0000000000000000
     0.0000000000000000    0.0000000000000000   16.3599999999999994
 C   F  
 120  24
Cartesian
  4.2259799999999998  0.7005900000000000 10.6930999999999994
  2.4935299999999998  0.9218800000000000 13.6811600000000002
  8.5481099999999994  1.0354300000000001 13.4062099999999997
  9.8085500000000003  8.0346899999999994  5.1672099999999999
  4.5689099999999998  9.9496099999999998  7.6053400000000000
  4.4671700000000003  3.4831099999999999  1.7297300000000000
  4.1976300000000002  5.1224400000000001 12.9330499999999997
  5.0189800000000000  7.5648000000000000  4.8169700000000004
  7.9938599999999997  8.4523100000000007  1.1715899999999999
  3.4441099999999998 10.4987399999999997  2.9534500000000001
  8.1859400000000004  8.5948600000000006 15.1104400000000005
  6.0180800000000003  1.7933600000000001  9.4598499999999994
  4.2989100000000002  0.1796000000000000  4.9553799999999999
  3.3126099999999998  4.6828000000000003  3.6590199999999999
  6.5530999999999997  4.9569599999999996 14.1680799999999998
 10.7966400000000000  5.1161199999999996 10.6940000000000008
  6.2960599999999998  2.0437300000000000  5.4265100000000004
  9.1607900000000004  9.5343400000000003  1.3532400000000000
 10.8669700000000002  3.8593099999999998  3.3349899999999999
 10.2804400000000005  5.6724399999999999  7.2778299999999998
  2.1092800000000000  4.0663000000000000  4.2305599999999997
  5.2935900000000000  8.7576699999999992  7.1028300000000000
  8.4332300000000000  9.8138100000000001  3.7250700000000001
  4.0335700000000001  7.2157900000000001  0.1589800000000000
  8.1080500000000004 10.5830800000000007 12.6252099999999992
 10.8531899999999997  0.4895000000000000 16.1955999999999989
  6.7841899999999997  3.3596400000000002  3.0171999999999999
  8.7720400000000005  3.4494300000000000  6.6274800000000003
 10.1252700000000004  4.8044200000000004  9.6897300000000008
  2.0218600000000002  2.5078700000000000  2.9160100000000000
  0.2911400000000000  7.8958800000000000  7.0081600000000002
  4.3758600000000003  2.3740100000000002  4.0493800000000002
  2.1876400000000000  1.4148499999999999 12.3631200000000003
  7.9886200000000001  9.4520400000000002 12.0563900000000004
  7.0819000000000001  7.6267800000000001  1.9291600000000000
  2.7414100000000001  7.0295399999999999 16.1771899999999995
  5.5841200000000004  4.7470299999999996 10.4714100000000006
  2.0872000000000002  1.7862300000000000  0.3844300000000000
  5.0928399999999998  6.6068800000000003  0.8715000000000001
  7.4972099999999999  1.2402800000000000  3.3832399999999998
 10.2571100000000008  2.9166099999999999 15.5361200000000004
  8.1823099999999993  0.3145200000000000  4.1073300000000001
  8.1310500000000001  7.1311400000000003  5.3736699999999997
  3.3556599999999999 10.9329400000000003  7.8399400000000004
  5.0444599999999999  1.5475699999999999  4.8461100000000004
  9.5841300000000000 10.4154199999999992 16.3580399999999990
  5.6997900000000001  1.6449000000000000  1.4788900000000000
  8.1556200000000008  4.5788700000000002  3.9554499999999999
  3.1817299999999999  1.1107199999999999 11.6118000000000006
  9.4882600000000004  9.6814499999999999  2.6324800000000002
 10.7109799999999993  1.7117599999999999 15.6163299999999996
  2.3845999999999998  6.3925900000000002 13.0078700000000005
  9.0388099999999998 10.9265100000000004 14.0234799999999993
  8.3603500000000004  4.8887299999999998 16.1558799999999998
  4.9961599999999997  1.3093900000000001  9.8104800000000001
  4.9526399999999997  9.9276499999999999  4.6341799999999997
  8.1759299999999993  7.1760700000000002  6.6605100000000004
  0.5003600000000000  5.3677000000000001 11.8212799999999998
  3.3772600000000002  0.4093100000000000  3.7841100000000001
  2.0638399999999999  0.4782200000000000  8.0073500000000006
  7.0258000000000003  9.3849900000000002  3.7404899999999999
  3.9347799999999999  7.9002400000000002 10.5245599999999992
  9.1718899999999994  4.7025399999999999  7.2449199999999996
 10.2695699999999999  3.0751900000000001  2.0552400000000000
  3.4965899999999999  8.5041700000000002  9.4440600000000003
  9.6379800000000007  3.0291700000000001  3.3130700000000002
  8.6937800000000003  9.0053800000000006 10.9110099999999992
  9.7522599999999997  3.8890600000000002 16.2813499999999998
  1.9718199999999999 10.1089599999999997  1.6778599999999999
  5.4019899999999996  7.4440099999999996  3.3644099999999999
  7.2262100000000000  2.4805700000000002  4.3211300000000001
  3.3799000000000001  1.2454600000000000 16.2774099999999997
  1.0768500000000001  3.2447699999999999  3.7173099999999999
  7.3322399999999996  6.7288399999999999  4.1976300000000002
  1.7434700000000001  9.5578299999999992 13.7744999999999997
  5.1175600000000001  8.5955800000000000  5.5525200000000003
  3.7616900000000002  9.5043000000000006  8.5468600000000006
  8.0712100000000007  7.8391700000000002  0.1150100000000000
  6.2309500000000000  8.4285200000000007  7.8118900000000000
  0.2376000000000000  6.7355400000000003  7.3172600000000001
  1.6474500000000001 10.9112799999999996 13.7202400000000004
  5.0075700000000003  5.7192100000000003 11.4626099999999997
  1.2407699999999999  6.1656599999999999 12.5896699999999999
 10.6172100000000000  0.2887700000000000  4.2735399999999997
  1.6133599999999999  1.4203699999999999  1.7820300000000000
  1.3022899999999999 10.0426800000000007  8.0581800000000001
  9.5474800000000002  2.5484100000000001  4.7967399999999998
  5.8774300000000004 10.1412300000000002  3.7320799999999998
  9.9687800000000006  4.5897699999999997  8.4602299999999993
  0.7932500000000000  9.2803299999999993  7.0433300000000001
  8.6794600000000006  7.6784400000000002 10.3035200000000007
  9.4108900000000002  1.0576700000000001  4.7749300000000003
  7.5644299999999998  4.9882799999999996 14.9684600000000003
  3.4579100000000000  6.2647700000000004 13.6483000000000008
  2.9374099999999999  1.7818099999999999  3.8948499999999999
  8.4389699999999994  3.5018699999999998  5.0657800000000002
  4.1545699999999997  6.7369800000000000 11.2157000000000000
  5.0723099999999999  6.2821899999999999  2.5725799999999999
  2.0322100000000001  7.7459199999999999  0.7781600000000000
  6.7902600000000000  7.8643900000000002  3.2969800000000000
 10.7865000000000002 10.1885300000000001  3.0323199999999999
  8.1034900000000007  7.6251699999999998  9.0768699999999995
  1.6639999999999999  8.8976199999999999  1.0941600000000000
  6.3815900000000001  2.2958699999999999  6.9702900000000003
  4.7220800000000001  9.6678599999999992  3.0122200000000001
  7.6637399999999998  7.7339399999999996  7.8541400000000001
  4.3817800000000000  2.1689099999999999  1.1673800000000001
  5.2554499999999997  5.0471399999999997 13.8266299999999998
  7.4064199999999998  7.8134699999999997 13.9996399999999994
  6.7667999999999999  1.9622200000000001  2.2904300000000002
  6.0975299999999999  2.2253699999999998  8.1274999999999995
  5.7947300000000004  4.7309999999999999  3.3699400000000002
  0.8909400000000000 10.8755500000000005  1.9743700000000000
  8.9787599999999994  9.9122699999999995 14.9307099999999995
  7.5240400000000003  5.7635500000000004  0.2652600000000000
  3.6461100000000002  1.1277500000000000 14.9038500000000003
  4.4582600000000001  3.7557499999999999  3.4185099999999999
  6.7989699999999997  6.9744999999999999  0.3607700000000000
  6.8348599999999999  5.3951799999999999  4.3240999999999996
  3.6777299999999999  5.9003399999999999  3.0883699999999998
  9.2475299999999994 10.2475699999999996 10.4606800000000000
  1.0181100000000001  2.3054299999999999 12.4736499999999992
  2.6713399999999998  8.6556599999999992 13.2793200000000002
 10.3403799999999997  6.9894699999999998  4.3045099999999996
  9.0497499999999995  2.3075100000000002 13.3175899999999992
 10.9894400000000001  4.8405699999999996  4.3630199999999997
  7.5237600000000002  0.2739300000000000  6.7756600000000002
  0.9923100000000000  8.6695499999999992 14.6465399999999999
  9.0585000000000004  5.5498500000000002  3.6611500000000001
  4.8503499999999997  4.7234400000000001  5.7755500000000000
  2.2753000000000001  8.9462899999999994  3.4905599999999999
  5.6852299999999998  0.1282200000000000  0.9331800000000000
  6.0665699999999996  8.7256699999999991  9.1247699999999998
  5.9997400000000001  3.6845200000000000 10.9455100000000005
  2.7109600000000000  6.9615200000000002  3.0079799999999999
  2.1110799999999998  3.3907699999999998  0.5745700000000000
  1.2348600000000001  9.1861599999999992  9.8333499999999994
  7.5791300000000001  1.9006200000000000 10.7484500000000001
  5.7793299999999999  4.9875400000000001  9.2978299999999994
  1.8607499999999999  5.8245100000000001  4.9171800000000001
  6.7576999999999998  8.8373299999999997 12.6945999999999994
 11.0043699999999998  2.9408400000000001  6.1720899999999999
  0.0343000000000000  8.9246499999999997  3.6883200000000000
  0.8001200000000001  0.7930000000000000  4.7898100000000001
