 F  O Si 
 1.0000000000000000
     9.9854713620000002    0.0000000000000000    0.0000000000000000
    -4.9927356810000001    8.6476718679999998    0.0000000000000000
     0.0000000000000000    0.0000000000000000   27.4653860129999998
 F   O   Si 
  16  40  23
Selective dynamics
Cartesian
  6.4807300000000003  5.8645899999999997 13.6656600000000008   T   T   T
  5.2956500000000002  1.7177400000000000  3.0179299999999998   F   F   F
  5.0764600000000000  0.3660800000000000 12.7556999999999992   T   T   T
 -2.1934600000000000  6.0415799999999997  3.0179299999999998   F   F   F
  0.3029100000000000  1.7177400000000000  3.0179299999999998   F   F   F
 -0.4718900000000000  1.7896900000000000 13.4530799999999999   T   T   T
  3.7480500000000001  7.1745500000000000 13.8107600000000001   T   T   T
  1.8138200000000000  5.8603500000000004 12.9504500000000000   T   T   T
  7.2779699999999998  1.3562200000000000 13.4965899999999994   T   T   T
  2.7992800000000000  6.0415799999999997  3.0179299999999998   F   F   F
 -1.2947000000000000  5.9802700000000000 13.9277999999999995   T   T   T
  1.6984399999999999  2.9422700000000002 13.7701300000000000   T   T   T
  3.0052200000000000  2.5282499999999999  2.2112900000000000   F   F   F
  0.5088500000000000  6.8520899999999996  2.2112900000000000   F   F   F
  7.9979600000000000  2.5282499999999999  2.2112900000000000   F   F   F
  5.5015900000000002  6.8520899999999996  2.2112900000000000   F   F   F
  8.0930199999999992  0.7634700000000000  3.9581800000000000   T   T   T
 -1.8916200000000001  4.7477700000000000 11.6745800000000006   T   T   T
  6.5915900000000001  0.5618000000000000 10.8795900000000003   T   T   T
  6.0462400000000001  5.1351399999999998  4.3938699999999997   T   T   T
  1.4680400000000000  0.7979500000000000 12.2615200000000009   T   T   T
  2.2294800000000001  0.7498300000000000  6.7802199999999999   T   T   T
 -3.5270299999999999  7.4991300000000001  4.6112200000000003   T   T   T
  3.8852500000000001  3.5060199999999999  4.3351499999999996   T   T   T
  0.7441400000000000  5.3299200000000004  4.3763699999999996   T   T   T
  1.5002700000000000  7.7805999999999997  4.2580700000000000   T   T   T
  0.9347299999999999  3.0032600000000000  5.8295000000000003   T   T   T
 -1.3873700000000000  7.4612200000000000  6.3295100000000000   T   T   T
  5.7651700000000003  3.3006400000000000  6.1702199999999996   T   T   T
  3.2664000000000000  7.8965600000000000  6.3507600000000002   T   T   T
 -1.0350299999999999  3.3653700000000000  4.3377999999999997   T   T   T
  3.1163400000000001  0.7922200000000000  4.3258500000000000   T   T   T
  4.2448399999999999  5.0842299999999998 12.1720000000000006   T   T   T
  8.1326599999999996  0.1123700000000000  8.9739000000000004   T   T   T
  6.1073800000000000  4.9535900000000002 10.1201799999999995   T   T   T
 -0.6153100000000000  4.8716999999999997  6.6731400000000001   T   T   T
  6.0574800000000000  0.8583200000000000  6.0224599999999997   T   T   T
  4.0707800000000001  5.3087900000000001  5.9633099999999999   T   T   T
  2.2060000000000000  2.6688600000000000  8.3793199999999999   T   T   T
 -0.4794500000000000  6.3704400000000003  8.9117400000000000   T   T   T
  7.1314399999999996  2.4273699999999998  8.0693999999999999   T   T   T
 -0.1526400000000000  1.6942400000000000  7.6539200000000003   T   T   T
 -2.8013400000000002  6.1246900000000002  7.7767400000000002   T   T   T
  4.4962000000000000  1.6406499999999999  7.9825600000000003   T   T   T
  2.1879700000000000  6.0458100000000004  8.0946099999999994   T   T   T
  4.7979200000000004  6.6550500000000001  8.1363900000000005   T   T   T
 -3.6281599999999998  7.5451199999999998 10.0704700000000003   T   T   T
 -1.3165000000000000  2.6462500000000002 10.1240500000000004   T   T   T
  3.2551999999999999  0.8676500000000000 10.2005599999999994   T   T   T
  3.2273800000000001  7.4276900000000001 11.5681200000000004   T   T   T
  5.6538700000000004  2.9070800000000001 11.8860200000000003   T   T   T
 -1.7657099999999999  7.2785299999999999 11.8955300000000008   T   T   T
 -0.9098500000000000  5.0231199999999996  9.3479500000000009   T   T   T
  0.6736000000000000  3.8403399999999999 11.6863899999999994   T   T   T
  2.0069900000000001  6.5995100000000004  9.4802499999999998   T   T   T
  4.1103800000000001  3.3102299999999998 10.0243699999999993   T   T   T
 -1.1829499999999999  2.0489299999999999  3.4890599999999998   F   F   F
  1.2991800000000000  1.9464900000000001  7.1901099999999998   T   T   T
  4.9798600000000004  4.2566899999999999  5.1868699999999999   T   T   T
  7.2098000000000004  0.1517900000000000  5.2313200000000002   T   T   T
 -0.1260000000000000  4.2494899999999998  5.4390700000000001   T   T   T
 -2.2822000000000000  8.3958899999999996  5.4742400000000000   T   T   T
  1.3134200000000000  6.3727700000000000  3.4890599999999998   F   F   F
  3.8097799999999999  2.0489299999999999  3.4890599999999998   F   F   F
 -3.6793200000000001  6.3727700000000000  3.4890599999999998   F   F   F
 -1.2140800000000000  6.3435300000000003  7.4291900000000002   T   T   T
  0.7777500000000001  2.3597800000000002 12.6996699999999993   T   T   T
  6.1310399999999996  6.2579799999999999  9.0386600000000001   T   T   T
  8.5519400000000001  1.7152400000000001  8.7087000000000003   T   T   T
  4.9647300000000003  4.0138499999999997 11.1159199999999991   T   T   T
  2.4332799999999999  8.1002899999999993 10.2870299999999997   T   T   T
 -0.7383300000000000  3.9701100000000000 10.8879300000000008   T   T   T
 -2.6586400000000001  8.4725099999999998 11.0057899999999993   T   T   T
  3.2867700000000002  6.2576400000000003 12.5993600000000008   T   T   T
  6.1627000000000001  1.4217700000000000 12.3561700000000005   T   T   T
 -2.2511500000000000  5.8854800000000003 12.7046899999999994   T   T   T
  5.8271699999999997  2.0043400000000000  7.1995300000000002   T   T   T
  3.3848199999999999  2.0566399999999998  9.1336499999999994   T   T   T
  3.5458200000000000  6.4413900000000002  7.1243499999999997   T   T   T
