C  F  H 
 1.0000000000000000
    11.7567382899999995    0.0000000000000000    0.0000000000000000
     0.0000000000000000   11.7567382899999995    0.0000000000000000
     0.0000000000000000    0.0000000000000000    7.8378255259999996
 C   F   H  
  67  67  10
Cartesian
 11.0358400000000003  1.2965300000000000  6.8406900000000004
  5.6422600000000003  4.9182800000000002  2.1798000000000002
  4.5471399999999997  1.5272300000000001  1.8885400000000001
  7.3412699999999997  8.1823499999999996  6.7986300000000002
 10.3501999999999992  3.6628699999999998  4.0492699999999999
  5.2991000000000001  2.4349300000000000  1.1653100000000001
  3.4104600000000000  4.1448600000000004  3.0127100000000002
  6.3131100000000000  7.4251699999999996  5.9272000000000000
  7.5997399999999997  7.8382699999999996  3.9264600000000001
  3.4179100000000000  9.7420700000000000  1.3745600000000000
  0.6978700000000000  5.6863700000000001  7.0441799999999999
  9.1221800000000002  6.3493399999999998  5.2591799999999997
  8.7175499999999992  0.7895799999999999  6.8328899999999999
  2.8466399999999998  2.8078300000000000  2.6905600000000001
  6.3393600000000001  4.6959099999999996  3.5376400000000001
  1.5454699999999999  3.2977900000000000  3.1411099999999998
  9.9149999999999991  7.7128199999999998  6.8695100000000000
  9.9124800000000004  0.3766200000000000  6.1124499999999999
 10.8758499999999998  5.4186600000000000  7.1018699999999999
  6.0313499999999998  3.7572800000000002  1.2319700000000000
 10.2291399999999992  8.1554900000000004  0.3963400000000000
  4.6078599999999996  0.2097700000000000  1.2096300000000000
  6.6207399999999996  0.4431200000000000  0.1531300000000000
  2.6597900000000001  0.2241900000000000  2.3329100000000000
 10.2573100000000004  2.5031500000000002  4.9514199999999997
  4.4533100000000001  0.8168800000000001  7.6125299999999996
  3.2720699999999998  1.5735600000000001  2.4919799999999999
  2.6169500000000001  3.0359600000000002  5.2559100000000001
 10.7384500000000003  2.6160800000000002  6.2467800000000002
  2.3437000000000001  4.1470599999999997  4.0519999999999996
  5.8454100000000002 11.2340800000000005  0.7657000000000000
  9.2602200000000003 10.2516400000000001  1.3086300000000000
  1.1254500000000001  6.1880199999999999  5.6132900000000001
  2.4682300000000001  9.7393699999999992  6.5147500000000003
  9.7875800000000002  1.1200399999999999  4.6846800000000002
  3.6019600000000001 11.1452500000000008  1.8070200000000001
 10.2620699999999996  9.5166799999999991  0.8090900000000000
  0.9814000000000001  4.0945999999999998  1.9331400000000001
  1.6958599999999999  3.8748000000000000  5.9687900000000003
  7.0883799999999999  5.5662000000000003  4.2168400000000004
  2.1916899999999999 10.0331499999999991  0.1012800000000000
  4.1802999999999999  5.0442099999999996  2.4430100000000001
  1.4066399999999999  3.5276700000000001  0.6608800000000000
  7.7744600000000004 10.4462200000000003  6.8655900000000001
  7.7497299999999996  0.0054100000000000  7.3132799999999998
  3.9973399999999999  3.5335999999999999  5.6579400000000000
  8.6991700000000005  7.6055999999999999  4.8995899999999999
  5.7994300000000001  1.6356299999999999  0.0336100000000000
  0.8855100000000000  4.0877699999999999  7.1298500000000002
  8.8520199999999996  9.9384700000000006  6.1533699999999998
  9.0360700000000005  4.2595599999999996  3.9465699999999999
  9.9376999999999995 10.7316599999999998  5.9918399999999998
  5.0810700000000004 10.8416999999999994  4.2871199999999998
  2.3075199999999998  7.2380399999999998  5.4690200000000004
  1.2847800000000000 11.5464199999999995  2.8521000000000001
  8.3909199999999995  5.2350000000000003  4.6783900000000003
  1.6611899999999999  8.5585400000000007  5.8912699999999996
 11.1408600000000000  3.8526199999999999  7.0436199999999998
  8.7833000000000006  8.4501500000000007  6.1516400000000004
  1.7050399999999999  4.9079800000000002  5.1010499999999999
  4.8071799999999998  9.0989799999999992  0.9074900000000000
  6.8643799999999997  9.5332100000000004  7.2051400000000001
  1.0347400000000000  5.4016200000000003  1.7246999999999999
  5.8491200000000001  9.9014199999999999  0.2506800000000000
  6.5925099999999999  6.9739100000000001  4.4286599999999998
 10.0542499999999997  6.4492599999999998  6.3500800000000002
  1.6170300000000000  5.9794200000000002  0.3662700000000000
 11.2137300000000000  8.3395100000000006  3.2750100000000000
  8.3610500000000005  4.7948000000000004  7.2593699999999997
 11.0895700000000001 10.1376899999999992  5.5431900000000001
  5.9124800000000004 11.0910700000000002  3.2921299999999998
  7.2304599999999999  9.2789199999999994  4.1956800000000003
  6.0931400000000000  4.4077999999999999  0.0232100000000000
  9.3903499999999998  9.9519500000000001  3.5855199999999998
  4.7630299999999997  2.5168100000000000  5.0682400000000003
  7.5054499999999997  7.3448599999999997  0.0849300000000000
  2.2828900000000001 10.9572599999999998  5.8488499999999997
  1.0718799999999999 10.1992700000000003  2.6882700000000002
  0.7712900000000000  2.3217200000000000  3.8391199999999999
  0.5235300000000001  0.8862000000000000  6.4888599999999999
  3.7849499999999998  6.3334700000000002  2.3272599999999999
  4.2604899999999999  4.7612300000000003  5.0453299999999999
  9.4884299999999993 11.4454899999999995  1.7283299999999999
  6.4966400000000002  1.3095399999999999  4.6832399999999996
  2.7190400000000001  7.3332499999999996  4.1882900000000003
 10.8210099999999994  0.9628300000000000  0.3977700000000000
  8.2796900000000004  5.3217200000000000  1.8204400000000001
 10.8861399999999993  3.4849700000000001  2.8020700000000001
  5.2494699999999996  8.2505799999999994  5.7945900000000004
  0.0792000000000000  6.7312099999999999  4.8489399999999998
  1.1334299999999999  9.3281700000000001  0.5561600000000000
  6.2436699999999998  2.4138000000000002  6.9334199999999999
  7.2282900000000003  1.0766199999999999  2.2943600000000002
  2.8250999999999999  3.5026799999999998  0.6367699999999999
  7.6798000000000002  7.6749200000000002  2.6274299999999999
  1.8880699999999999  7.2706000000000000  0.6986200000000000
  0.3502000000000000  0.4837200000000000  2.1819500000000001
  7.5784399999999996  3.2132200000000002  5.5802800000000001
 11.4918999999999993  7.6524599999999996  0.8910800000000000
  8.0459399999999999  9.8552499999999998  1.7147699999999999
  2.8669300000000000  8.8677299999999999  2.2163300000000001
  4.6584399999999997  0.0037800000000000  6.5463300000000002
 10.6811000000000007  0.5399100000000000  3.8185300000000000
 10.2331400000000006  6.1211000000000002  2.7885100000000000
  6.0742599999999998  3.3639199999999998  3.5928000000000000
 11.2850800000000007  4.6040599999999996  4.5509199999999996
  5.3750200000000001  7.1092000000000004  3.8885500000000000
 10.7218099999999996  3.4637400000000000  0.4955600000000000
  5.9311100000000003  6.2505300000000004  6.6173700000000002
 10.4682099999999991  5.5469200000000001  0.5675500000000000
  8.3399800000000006  3.3558400000000002  3.2313399999999999
  2.8507799999999999  5.5295699999999997  0.1232300000000000
  2.5667700000000000  1.6496500000000001  5.1977399999999996
  0.5395400000000000  8.2596600000000002  6.5581199999999997
  4.2583500000000001  0.1440500000000000  4.3736300000000004
  1.7339300000000000 11.3212399999999995  0.1549800000000000
  1.0758600000000000  6.3308000000000000  2.6527799999999999
  4.2477900000000002  3.5661399999999999  6.9184700000000001
  3.7662599999999999  9.4830000000000005  6.4152600000000000
  1.1749200000000000 11.7063299999999995  4.2002300000000004
  1.4066600000000000  9.0835399999999993  4.6380699999999999
  1.0993700000000000  2.1511200000000001  0.5923800000000000
  8.7180999999999997  2.1129400000000000  7.2853500000000002
  3.3788800000000001  6.7850700000000002  6.0864500000000001
  4.6384999999999996  7.8726200000000004  0.3190000000000000
  3.2205699999999999  1.4071400000000001  7.4554400000000003
  7.3528500000000001  3.3562699999999999  1.2404100000000000
  9.3919200000000007  7.5119800000000003  1.3402099999999999
  5.3384799999999997  8.8501499999999993  2.2304400000000002
  5.9921100000000003  6.2070800000000004  1.5920900000000000
  8.6118000000000006  0.8912800000000000  4.0965199999999999
  9.2284500000000005  1.9709600000000000  1.8074900000000000
  4.3693999999999997  9.7395899999999997  4.0039400000000001
  5.9031500000000001 10.6008700000000005  5.3208799999999998
  8.2380800000000001  1.3829899999999999  1.9417899999999999
 10.1292500000000008  9.2985699999999998  3.6449600000000002
  9.8616100000000007  1.6525200000000000  1.0604899999999999
 10.8461700000000008  7.4528100000000004  2.9433300000000000
  6.9552899999999998  1.2210300000000001  3.7170000000000001
  8.2431500000000000  5.1184000000000003  0.8764500000000000
  9.4693699999999996  5.8151799999999998  2.1465399999999999
 11.1354299999999995 10.0496800000000004  0.5076000000000001
  7.9654199999999999  3.9569700000000001  6.8506600000000004
  6.9785100000000000  2.3627400000000001  5.1743199999999998
