C  F  H 
 1.0000000000000000
    10.9383933019999997    0.0000000000000000    0.0000000000000000
     0.0000000000000000   10.9383933019999997    0.0000000000000000
     0.0000000000000000    0.0000000000000000    7.2922622009999998
 C   F   H  
 120  12  12
Cartesian
  2.9397199999999999  9.3250899999999994  4.7468800000000000
  5.3570399999999996  9.1881799999999991  6.4048400000000001
  1.6383399999999999  4.3867000000000003  2.1761100000000000
  0.7235300000000000  6.0872599999999997  6.1100599999999998
  0.7494800000000000  2.0394800000000002  0.4005100000000000
  6.4799800000000003  8.0461200000000002  4.6247400000000001
  2.5558299999999998 10.0682799999999997  2.8551199999999999
  6.9408300000000001  4.6102499999999997  1.6207000000000000
  0.1094100000000000 10.4300700000000006  2.7335900000000000
  8.7080000000000002  7.8226699999999996  2.0413299999999999
  5.8915400000000000  4.2039000000000000  6.8820499999999996
  2.7212299999999998  5.2855600000000003  0.1250200000000000
  9.4878400000000003 10.7139600000000002  5.7209899999999996
  2.6171899999999999  2.4611800000000001  3.6891600000000002
 10.0125799999999998  4.9251800000000001  4.9807199999999998
  0.1240900000000000  2.1014699999999999  3.2572800000000002
  9.4514399999999998  4.1789100000000001  3.7987899999999999
  8.7461099999999998  9.0771899999999999  4.1288099999999996
  9.4356100000000005 10.5950299999999995  0.7913200000000000
  5.4146000000000001  8.4063099999999995  2.4873599999999998
 10.3563299999999998  3.5431800000000000  1.3968900000000000
  2.9767000000000001 10.6982599999999994  4.1471700000000000
 10.4736100000000008  7.1587399999999999  3.5880500000000000
  5.6548699999999998  5.6257099999999998  6.9270800000000001
  0.7372000000000000  0.7140000000000000  3.4199899999999999
 10.1927699999999994  8.4511199999999995  4.3328499999999996
  7.9679900000000004  4.4124600000000003  3.7797200000000002
  3.6682999999999999  1.7223200000000001  2.9278200000000001
  6.7063800000000002  8.0732099999999996  3.1634799999999998
  5.1458199999999996  0.8481100000000000  6.1761600000000003
  8.5423399999999994  0.2851900000000000  3.3899800000000000
  3.6375999999999999  3.5280100000000001  4.3109400000000004
  6.4327500000000004  3.6561900000000001  0.7093600000000000
  6.4531400000000003  2.2565800000000000  0.6223400000000000
  5.8863200000000004  5.6654499999999999  2.2022200000000001
  6.9831000000000003  6.4046900000000004  6.4062900000000003
  8.9483800000000002 10.4229900000000004  4.4451000000000001
  0.8184700000000000  7.6715999999999998  5.6656700000000004
  6.0880400000000003  8.5509000000000004  0.2881100000000000
  5.9618700000000002  2.9121800000000002  3.2523599999999999
  9.0983400000000003  6.6651400000000001  3.0561400000000001
  7.9918699999999996  8.9458000000000002  6.5650899999999996
  4.5631399999999998  2.9219100000000000  2.5712000000000002
  1.5382400000000001  0.5453500000000000  4.6761600000000003
  3.9837500000000001  9.2878900000000009  6.9933399999999999
  2.2391600000000000  6.3210699999999997  3.5011000000000001
  5.6973599999999998  3.1045099999999999  6.0126299999999997
  2.8110599999999999  5.1856900000000001  2.6200299999999999
  1.4348000000000001  2.9823900000000001  2.7353999999999998
  8.6684199999999993 10.1090099999999996  6.8752800000000001
  1.9320600000000001  8.9154499999999999  3.5661499999999999
  7.7105499999999996  6.0825500000000003  3.7797999999999998
  0.2046300000000000  4.1438100000000002  0.2061700000000000
  5.1340100000000000  9.8969100000000001  2.2245100000000000
  2.4953699999999999  2.6612100000000001  6.0385200000000001
  7.0411700000000002  1.4595600000000000  1.5070900000000000
  5.0887799999999999  5.2200100000000003  3.4257200000000001
  0.0460200000000000  8.0420099999999994  2.5454800000000000
  0.0059900000000000  2.8847000000000000  6.7250899999999998
  4.5625000000000000  1.3458699999999999  5.0712500000000000
  5.3386500000000003  8.7104700000000008  5.1109200000000001
  7.8387000000000002  8.4508899999999993  5.1764700000000001
  3.4323800000000002  5.9663399999999998  1.2784400000000000
  3.7859400000000001  8.4960299999999993  0.9845000000000000
  7.1354100000000003  3.7980200000000002  2.8268499999999999
  1.5927199999999999  7.4565400000000004  0.5656099999999999
 10.0329400000000000  8.5081100000000003  1.5139499999999999
  1.7849200000000001  4.1760799999999998  0.6605500000000000
  7.0511200000000001  0.0556700000000000  1.4688500000000000
  7.6503800000000002  7.0650599999999999  1.3064100000000001
  1.4850699999999999  0.1162900000000000  2.3402699999999999
  5.1954500000000001 10.4759499999999992  6.9865300000000001
 10.7610299999999999 10.0445300000000000  5.9386299999999999
  9.6121400000000001  2.5665200000000001  3.7456200000000002
  7.9829600000000003  8.9208900000000000  2.8249100000000000
  2.7778200000000002  9.1369100000000003  6.2394600000000002
  4.0345199999999997  8.2602399999999996  3.1480899999999998
  2.7300800000000001  7.4988400000000004  1.4591099999999999
  5.9952500000000004 10.0551899999999996  0.9464500000000000
  8.1041399999999992  5.4147600000000002  6.8461400000000001
  9.3449899999999992  5.7097899999999999  1.8853599999999999
  5.4002400000000002  5.7679600000000004  4.6303599999999996
  3.9389200000000000  4.3759100000000002  3.1758500000000001
 10.0916399999999999  4.5703399999999998  2.4431400000000001
  0.3419500000000000  2.4866500000000000  1.8097399999999999
  4.1476400000000000  0.6808300000000000  3.8966400000000001
  1.9194700000000000  6.3951599999999997  6.8288799999999998
  8.5810899999999997  1.7396300000000000  3.4232499999999999
  7.2698799999999997  7.8083499999999999  0.0092300000000000
  6.6643400000000002  6.5161100000000003  4.9128100000000003
  2.0876700000000001  1.8887499999999999  4.9644899999999996
 10.6636600000000001  8.5295900000000007  5.7421400000000000
  4.6853899999999999  5.7556399999999996  5.9003399999999999
  7.8554800000000000 10.4008000000000003  2.4260700000000002
  0.6506100000000000  6.0943800000000001  3.6635100000000000
  1.9750500000000000 10.1880400000000009  6.7113500000000004
  8.0677299999999992  5.6277299999999997  1.0054399999999999
  4.9238000000000000  6.2367400000000002  1.0324599999999999
  0.5027400000000000  5.2990000000000004  2.3535900000000001
 10.2041900000000005  9.9942799999999998  1.6421800000000000
  0.4879300000000000  5.2914500000000002  4.8825200000000004
  2.5962000000000001  7.6325200000000004  2.9177700000000000
  2.1050399999999998  2.7717499999999999  0.1503200000000000
  9.4777600000000000  5.3402399999999997  6.1618700000000004
  5.7922900000000004  1.9685500000000000  6.7526700000000002
  1.9661599999999999  7.8326300000000000  6.4878099999999996
  3.5636000000000001  4.8560900000000000  6.3329100000000000
 10.6049299999999995  6.1481800000000000  1.2159899999999999
  0.4300300000000000  9.1416100000000000  3.4851999999999999
  0.2393000000000000  7.5541099999999997  1.2160000000000000
  5.0866300000000004  7.7892599999999996  1.1590900000000000
  3.2101199999999999  3.7461700000000002  5.6447300000000000
  3.6902599999999999  9.4739400000000007  2.1760500000000000
  5.3135599999999998  0.0355800000000000  3.3062200000000002
  4.1844799999999998  8.6690400000000007  4.4540400000000000
  7.3100800000000001  2.2604799999999998  2.7685700000000000
  6.9013799999999996  6.7057000000000002  2.6117100000000000
  5.0506900000000003  2.7330199999999998  4.6970400000000003
 10.6972699999999996  5.4999300000000000  7.1274600000000001
  0.9923800000000000 10.6154700000000002  5.7480500000000001
  1.1967699999999999  4.1711400000000003  4.6945199999999998
  4.3777799999999996  3.2335300000000000  1.2032300000000000
  9.4113299999999995  2.6438799999999998  6.5033599999999998
  2.7193600000000000  0.3895900000000000  7.1719400000000002
  6.3563499999999999 10.7770600000000005  4.2985400000000000
  4.2735399999999997  7.0776599999999998  6.2164400000000004
  2.7462800000000001  6.2421100000000003  4.6860200000000001
  7.4926599999999999  3.9934599999999998  5.1147400000000003
  9.8047299999999993  7.8003900000000002  6.5490500000000003
  9.3894800000000007  1.0404800000000001  0.7785500000000000
  7.6317599999999999  1.1850900000000000  5.6588200000000004
  1.3749600000000000  9.7804400000000005  0.6155400000000000
  1.7577400000000001  0.5997000000000000  1.4320200000000001
  3.4035400000000000  1.1906300000000001  2.0583999999999998
  2.9430900000000002  2.2977699999999999  0.8122100000000000
  8.4017199999999992  7.5622299999999996  5.1808699999999996
  1.1300699999999999  7.6755800000000001  4.6810600000000004
  7.5872999999999999  1.6154700000000000  6.5447400000000000
  9.3635400000000004  3.1477100000000000  1.1271000000000000
  0.7401400000000000  0.9876900000000000  0.1798200000000000
  0.3071600000000000  2.6869800000000001  5.7439499999999999
  9.6412999999999993  0.8661500000000000  5.7955199999999998
  5.7310699999999999  0.8551500000000000  2.8115800000000002
  7.8585900000000004  4.3616299999999999  6.6423300000000003
