Si  O  C  H  F 
 1.0000000000000000
    10.8623180000000001    0.0000000000000000    0.0000000000000000
     0.0000000000000000   10.8623180000000001    0.0000000000000000
     0.0000000000000000    0.0000000000000000   10.8623180000000001
 Si  O   C   H   F  
  30  60   5   5   5
Cartesian
  9.4410579879551211  2.8381496790656402  1.3403929873607401
  7.3934010096737799  1.6550915022831800  5.2278285728361604
  8.0473111411724396  0.6100060542440000  0.6724018157923199
 10.2786969506707191  1.0712464719567401  5.4971021773607607
  1.8076707900410598  1.8508317761213400  3.3594834814034202
 -0.0368116353397400  5.0388372744177605  7.9562046438024208
  4.1323371898570604  7.5777569225088603  8.0854941441596804
  3.4523794370407601  9.8189115404540797  9.7542071018380394
  1.8873678344534199  3.0505514452376401  9.3479269717562605
  8.2588721639312404  4.1392537708435597  6.6280542491899404
  4.7418332582709599  9.6658802716442214  2.8879267944165399
  6.8763791130892802  8.1599338266600405  8.7184724802491598
  1.2286039847796399  3.9385951480381798  1.1963312776393800
  3.3690517714600801  5.9904201063593003  5.8245743437584805
  3.2833667656270400  2.9203704744421199  5.6537472307460392
  6.8280170319042401  9.4695034659712611  5.2153382106143198
  0.2339375064619800  7.8718184453326403  9.1918012457945597
  3.1868432302704202 10.1350828770741401  6.7533925813747002
  6.9527588055844403  8.6542883466653198  0.9591531072252800
  6.4767676858972401  6.5269363878120394  5.6569765978874402
  5.9406454893415397  1.7836789710281000  2.7093148753398602
  4.9424446299930400  2.7652533147067198  8.1020265921556796
  0.6545418839135400  6.4408760888921002  5.1690307368789803
  9.5764939309526795  4.5631707207924004  3.6986013561752999
  0.4681484174680200  9.1369765198922401  6.2358616765687200
 10.2142919861619408  1.7133237373421002  8.5664405446953005
  6.2548007797408003  0.1568955384383600  9.1772745248172605
  0.1761341157177000  8.2378693289623399  0.6902903155674399
  2.1439173196728198 10.0439866989062203  1.8269818189814602
  8.8301339592169406  6.5301876968358004  1.5613090728738601
  7.9737443545465609  3.4292677916553402  0.7192581624562000
  0.6465344003303000  8.5926366538999996  7.8017236900322802
  6.5958576868988610 11.1211402080145394  5.7454770079228998
  2.0085456815978202  3.2804843409225599  0.0150905839046800
  3.6629174466903205  8.1786548144866806  9.5105126268557392
  7.3957520497816995  0.9026328821063401 10.0679891629908198
  4.0461276426878001 11.3464514046368201  6.1149465888967400
 -0.0384370726052600  7.8785825193744206  5.3056053766724798
  1.1213728108313399  4.2449091483196000  8.6462327430133410
 10.2146887866384795  1.8755632103669200  6.8433330089074200
  7.5706041947290403  7.4677533591374203  1.8415969592272798
  0.5802211437952800  1.4076796162117400  4.3750443887563399
  9.3390294298361010  4.2681905717353601  7.8469089776950405
  5.7093855442665600  1.3155874721064000  8.1870431309389993
  5.6720870598340607  7.1510458585008800  8.3382703859754201
  3.4639640991877600  2.8677018100396197  8.8447532271436007
  6.8757514883552400  8.1426913089363797  6.2437268637861596
  3.9489335764410400  8.7269352035797798  6.9325988864923396
  6.8047708023988003  9.7664727227004597  8.2887640682122594
  2.7684496604014002 10.4429836447689990  8.3515442471945995
  5.5996097637035804  8.7796444930516007  1.7768447264120402
  7.2436752528544996  5.4390666588808205  6.5961920290468994
  0.4403409920112000  5.3299406621805998  6.3426845359834010
  3.4121731100796602  6.1749652407739406  7.4657710947256000
 10.1045210936420613  8.7790889941090793 10.2410540221344402
  3.0887077269226002  9.4851492229489196  3.0034921904735201
  8.0085831756911396  9.9064744238229601  0.9665347040453599
 10.1733094379565596 10.2534039345845400  5.7531597081979404
  4.3398982726355406  5.6991011015841604  0.5098101864179401
  4.9387545919452602 10.4645373078836812 10.0183814998007215
  5.3734614082330401  9.2205530411783005  4.3934133288565995
  0.6556189913664200  9.2564387725317196  1.8261155491209600
  9.0425372461134597  4.1409873967963602  5.2151229194715603
 10.5928347527379998  6.3892231598457796  8.8951254888977207
  3.0686414410116596  4.4692946582019202  5.2822467221757403
  3.1940379952209002  1.9350793714134402  4.2485186965909998
  1.2633031165147399  7.6329335875143798 10.4968023027781605
  9.5055637547749399  1.3646398536003399  0.7742566854465200
  8.6217553783857799  5.3466460382791601  2.6617583436576999
  6.6853942534483402  8.1169241526695011 10.3588054596889201
  4.9765690364827595  6.2598175413091006  5.4914409544655207
  4.1125890612403397  6.3045381390078203  2.7772674729074400
 10.5486108888414201  3.9353180953207603  0.6240200738117000
  0.0230674357511600  5.4933056885965801  3.9450124968894000
  1.7176307550522800  5.4740421279858404  1.4130483168832400
  1.5049856729570801  3.2575265059600200  2.6148713652570601
  0.8520754178303200  1.9009288953605201  9.0851141653548808
  7.2745836528539600  1.2896817126618401  1.9582505423015000
  7.9920517053037603  9.5106913119868395  4.1341407691377805
  2.2161589035026998  6.8885970483756802  5.0549624941119404
  9.5554917477228596  3.1425072672520802  2.8789417022133001
  4.6911131850944798  2.9674668783338003  6.4996281944904997
  8.8402986991549799  1.2627055804015601  4.6652611941240201
  6.2766521789918599  2.2658812727708799  4.2158487544814802
  4.9072292122833998  0.4756033349346001  2.8498431816390002
  1.7716308137720400  0.7613142335495201  2.1880050787248599
  1.8091652277514998  9.8580949629291208  5.8192143329413799
  7.4500448479715606  2.7085252934444397  6.4693897822652806
 10.2636354777782799  7.1855411045271209  1.5295448308391799
  2.6289715230065003  9.9931759253744392  0.2407519816592800
  6.8960359982348010  4.2708879025411202  9.5933993909488002
  4.3131551370963601  5.9013690854244194  1.6787358357433200
  7.7013271951927607  4.4802022720679799 -0.0965289665156200
  8.3589495238679206  5.6844847664833598  0.0011976791826800
  6.0139029171507801  4.1846572824749400  8.7205378413936803
  8.2991463803798400  6.3167266374124402  9.9143592718359805
  8.9319234377167795  9.5850394251464603  4.4614012289576799
  9.2716465608476195  2.6401724194585601  9.1826498515027399
  1.7101605217173199  6.1143898950992410  0.6757441510409200
  4.9751556316645997  0.5484646140063800  6.5321624662481996
  8.4654130578031594  7.6844357475868605  8.5196879331683188
  5.1942031812353600  2.9295836753233599  1.8438881479630198
  7.0972359989692997  6.5513111035345002  4.1672127256364799
  9.7842885535681603 11.0187164787666809  8.8030096649391396
  2.0311022625334401  2.4856009825794798  6.7043911441521793
