C  F  H 
 1.0000000000000000
    12.2112722970000007    0.0000000000000000    0.0000000000000000
     0.0000000000000000   12.2112722970000007    0.0000000000000000
     0.0000000000000000    0.0000000000000000    8.1408481980000005
 C   F   H  
 120  12  12
Cartesian
  6.9458900000000003  2.0353699999999999  4.4627999999999997
  1.2476499999999999  8.1658500000000007  6.3718199999999996
 10.9302799999999998  4.1230399999999996  6.1809799999999999
 10.3856300000000008 11.3805099999999992  4.6782700000000004
  1.3230400000000000  1.7942899999999999  1.3572700000000000
  7.3097799999999999  3.7354200000000000  2.3114300000000001
  9.1258999999999997  0.8875000000000000  5.2808999999999999
  3.1482899999999998  8.5264399999999991  1.3417300000000001
  5.1276000000000002 10.3861799999999995  0.2137800000000000
  0.0024000000000000 11.3446400000000001  1.4934099999999999
  2.6094599999999999  1.8137000000000001  3.9855299999999998
 10.7300699999999996  4.8074100000000000  3.8275700000000001
  2.1413899999999999  8.4373299999999993  7.4182100000000002
  9.7939600000000002  7.6642900000000003  7.8153800000000002
  3.6817899999999999 10.1635299999999997  6.4052100000000003
  7.0563900000000004 11.8843099999999993  5.9296600000000002
 11.1500599999999999  6.9632500000000004  3.0167000000000002
  0.1678700000000000 11.0526499999999999  3.0515900000000000
  1.3969499999999999  3.1215999999999999  1.9732300000000000
  3.9847199999999998  9.1081299999999992  3.7387100000000002
  6.2773399999999997  0.7480900000000000  6.6855700000000002
 10.8135499999999993  1.3694100000000000  1.8477699999999999
  4.2247800000000000  3.4293499999999999  4.8575900000000001
  1.0738099999999999  9.0656700000000008  5.2856800000000002
  4.0190400000000004  9.2678200000000004  0.3820400000000000
  8.2452299999999994  7.3236800000000004  6.0088400000000002
  3.1242999999999999  4.3985599999999998  4.9713200000000004
  0.5617300000000000  4.6532200000000001  7.8884900000000000
  9.9917300000000004  5.8547300000000000  1.3664900000000000
  3.9203800000000002 11.3476499999999998  2.1531300000000000
  4.3150399999999998 10.5832599999999992  3.5081500000000001
 10.0815099999999997  3.5534400000000002  4.1939200000000003
 10.5152300000000007  5.6930199999999997  2.7312300000000000
 11.9155800000000003  6.4386999999999999  5.2957500000000000
 11.8838100000000004  9.5849600000000006  3.3057200000000000
  3.6644600000000001 11.7234200000000008  4.5951399999999998
  5.2501100000000003  4.4979300000000002  1.2419300000000000
  6.6938599999999999  9.2275600000000004  5.5689799999999998
  6.3604900000000004 10.5422399999999996  6.0275900000000000
  6.1662100000000004  0.8115400000000000  5.1682399999999999
  6.0233699999999999  6.5307000000000004  5.7786299999999997
  8.6209799999999994  3.1050800000000001  2.1305700000000001
  1.3493299999999999 11.3689099999999996  3.9157799999999998
  1.6930300000000000  1.3572700000000000  7.3638100000000000
 11.5169499999999996 10.0697399999999995  0.9256799999999999
  2.2891200000000000  3.7736399999999999  6.0366200000000001
  7.8369400000000002  4.9919700000000002  6.4809700000000001
  7.4332500000000001  3.7284000000000002  6.1840700000000002
  7.2055600000000002  4.4207000000000001  3.7222100000000000
 10.0885599999999993  3.2217300000000000  5.4957700000000003
  7.9800500000000003  2.5476999999999999  6.9491500000000004
  5.0209799999999998 10.7410899999999998  6.8020300000000002
  9.0284700000000004  6.7610999999999999  7.0845200000000004
  9.2609399999999997  2.4653800000000001  3.3371700000000000
  5.0993500000000003  5.4973000000000001  5.4218700000000002
  2.9493999999999998 10.8537099999999995  5.4901600000000004
  8.7322199999999999  5.4480000000000004  7.4855299999999998
  6.9009499999999999  1.7813200000000000  7.5478199999999998
  3.5217700000000001  7.0434000000000001  4.6396600000000001
 10.6200500000000009  2.6170399999999998  0.9334000000000000
 11.6490700000000000  3.8288799999999998  7.2739900000000004
  1.3759300000000001  6.6026300000000004  0.6159500000000000
  4.0754999999999999  0.4651100000000000  8.0980699999999999
  2.8279000000000001  0.0566500000000000  2.3838300000000001
  0.4018500000000000  1.6253000000000000  0.1123200000000000
  8.4697600000000008 11.8679100000000002  5.6961000000000004
  1.6542500000000000 10.4807400000000008  5.0020499999999997
  1.0778300000000001  4.3653800000000000  1.2290200000000000
  4.6178400000000002  0.6846600000000000  5.1402999999999999
 11.5275099999999995  2.6024799999999999  8.0602199999999993
 11.4245099999999997  9.1665899999999993  1.9985700000000000
  4.6129899999999999  1.9008499999999999  0.4458900000000000
  0.6686000000000000  6.1340300000000001  7.6640300000000003
  5.6258400000000002  8.1388300000000005  5.6624400000000001
  7.5660499999999997  5.6606100000000001  4.0996699999999997
  9.1299899999999994  9.5249900000000007  6.2126799999999998
  2.5396200000000002  0.3619200000000000  8.1263299999999994
  2.2936700000000001  5.7102800000000000  2.9040699999999999
 10.8919999999999995  7.8605999999999998  1.9780100000000000
  7.4347099999999999  6.1269999999999998  5.5446499999999999
  0.4164300000000000  6.9419800000000000  6.4654400000000001
  2.1790500000000002  3.0910299999999999  3.1884700000000001
  1.6368799999999999  3.9768699999999999  7.1529400000000001
  6.3347600000000002  3.5156000000000001  1.3751000000000000
  3.7818100000000001  5.7541900000000004  5.2287400000000002
  2.1108600000000002  7.8021900000000004  0.5448499999999999
 11.3258299999999998 10.7489200000000000  3.9375000000000000
  1.6092000000000000  5.6212999999999997  1.6632899999999999
  2.4374799999999999  2.7730000000000001  7.1540499999999998
 10.9926100000000009  9.9201800000000002  7.7828999999999997
 11.5790799999999994  0.4442700000000000  0.9178700000000000
  3.8740899999999998  2.9773200000000002  7.8248400000000000
 11.2713699999999992  5.1754100000000003  5.1879700000000000
  8.0794700000000006  8.7027800000000006  5.8140599999999996
  9.0581999999999994  2.2429000000000001  5.9164300000000001
 10.2521699999999996  7.2223899999999999  0.9015800000000000
  2.4678300000000002  4.4134700000000002  3.6571099999999999
  2.1322899999999998  0.6788999999999999  1.3876800000000000
  6.1386000000000003  2.3011900000000001  0.4406100000000000
 10.3861399999999993  0.6359900000000001  4.4146700000000001
  4.8795200000000003  0.1239500000000000  6.7634600000000002
 11.7482799999999994  7.3693099999999996  4.1993099999999997
  9.3998100000000004  4.9238400000000002  0.4730400000000000
  4.3757700000000002  8.2561900000000001  4.7363400000000002
  2.8063199999999999  7.0348800000000002  3.4221200000000001
  0.2083600000000000  8.6941100000000002  4.2280899999999999
  3.2457300000000000  9.2826400000000007  7.3913200000000003
  5.4793399999999997  7.3578900000000003  6.9611599999999996
  9.3618199999999998 10.8424700000000005  5.5322500000000003
  8.4272600000000004  1.9482600000000001  4.4677800000000003
  5.3277700000000001  4.0945299999999998  5.1562200000000002
  3.8836900000000001  2.0130900000000000  4.6455399999999996
  4.2072599999999998  4.2168400000000004  0.4644900000000000
  6.6765999999999996  3.5258200000000000  4.9202899999999996
  3.2774399999999999  8.3004200000000008  2.6932800000000001
  4.4428099999999997 11.4753200000000000  0.9012000000000000
  9.4909199999999991  3.4864799999999998  1.0905300000000000
 10.2723200000000006  1.4008200000000000  3.0810399999999998
 10.0642999999999994  8.9346599999999992  7.1994300000000004
  2.4681299999999999  0.2745800000000000  3.7879000000000000
  6.1294199999999996  7.7706400000000002  2.6668500000000002
  6.3077300000000003  7.7615100000000004  8.0079100000000007
  8.6863600000000005 10.7644400000000005  1.6655000000000000
  8.2518999999999991  8.5633099999999995  2.5760100000000001
  7.0942299999999996  0.2969900000000000  2.3091900000000001
  6.5021100000000001 10.1716099999999994  0.4483400000000000
 10.5901099999999992 12.1921499999999998  0.0316100000000000
  1.3744600000000000  0.8319700000000000  6.0509700000000004
 11.6141600000000000  1.1355400000000000  4.9173499999999999
  3.4310600000000000  5.2589199999999998  8.1202100000000002
  5.3565199999999997  5.8023999999999996  1.7613900000000000
  4.3022400000000003  1.9571099999999999  1.7771399999999999
  8.0798500000000004  6.2325100000000004  3.3754300000000002
  2.2800500000000001 11.4971599999999992  7.7394499999999997
  8.4633000000000003  9.6293100000000003  2.0651400000000000
  8.3909000000000002  3.1147900000000002  7.7883899999999997
  7.7496499999999999 11.7513500000000004  1.9910200000000000
 11.1546800000000008 10.7904000000000000  7.1109999999999998
  4.4736300000000000  7.0675200000000000  7.1943099999999998
  6.6443399999999997  2.0393100000000000  3.4334300000000000
  1.0106200000000001 11.4484700000000004  1.1656500000000001
  5.3067200000000003 10.7284199999999998  3.6938499999999999
  7.0590900000000003  7.9654400000000001  2.4826800000000002
  4.4113699999999998  2.9072000000000000  6.8639900000000003
