 F  O Si  C 
 1.0000000000000000
     9.9854710000000004    0.0000000000000000    0.0000000000000000
    -4.9927359999999998    8.6476720000000000    0.0000000000000000
     0.0000000000000000    0.0000000000000000   27.4653859999999987
 F   O   Si  C  
  16  40  24   1
Cartesian
 -1.3795385499432800  6.0071500632642403 14.2007235018256388
  5.2956457119411207  1.7177447693322399  3.0179301214509198
  5.1769404474206704  2.2762806949449601 13.5609511173804194
 -2.1934578379862399  6.0415808558089603  3.0179301214509198
  0.3029102119411202  1.7177447693322399  3.0179301214509198
  0.6283481383681202  1.8358251849467200 13.0482388269945400
  6.0099702359594804  7.3099427774304804 12.5072970635701406
  4.1635506421774915  6.6212416604901598 14.4894179418026994
  7.7971192939425116  3.2537856923211201 13.9232802572234799
  2.7992777119411212  6.0415807693322394  3.0179301214509198
  1.1975224804551206  6.1755300954503207 13.4908712624243989
  2.6910515753505604  3.5742431654388800 13.8634139553592810
  3.0052217139697701  2.5282537944259200  2.2112906857472598
  0.5088537139697701  6.8520897944259200  2.2112906857472598
  7.9979572139697712  2.5282537944259200  2.2112906857472598
  5.5015892139697709  6.8520897944259200  2.2112906857472598
  7.9727844820696303  0.9493626189564001  4.4166493974262400
 -0.5068322444598398  5.0509512866383997 11.8120830509453185
  7.3268362222993693  1.3556432210244000 12.0268250165403590
  6.1158470165499503  5.0166752874224798  4.1334359498793400
  2.7786217479004298  1.1844594406224800 12.1345895783192592
  2.1903190129282302  0.7299390974532800  6.5555416003313596
 -3.5885504519674600  7.6520572208748803  4.6360887679888600
  4.3447826364019306  3.3517922669219997  4.3205452652736396
  0.9119585498016605  4.9695086359397598  4.3116137964002998
  1.2867990047774305  7.5068191372512798  4.5833030426354604
  0.9108871698925800  3.0487469678529604  6.3616021927465791
 -1.3462166043701298  7.2252161732898408  5.8585557956556800
  6.3501611286989501  3.4198678651033600  6.2448754008620195
  3.2776215056901510  7.9298909240416799  6.4629739112801197
 -1.1961766913195198  3.3701045771492000  4.6790144197682597
  3.2315791136187002  0.7523209156469600  4.1898751208784599
  4.5695626588264906  5.4155515797706402 12.0581913113139390
  9.0500377494032609  0.3292205050622400 10.1447531238515793
  6.4885660621782204  5.7583631120549601 10.1837303517396194
 -0.3503766041802301  5.3026646100524797  6.4065597337822595
  6.3193358281350100  0.8605514599000000  6.4194385279315194
  3.3258295660706803  4.4105179292565602  6.7653494093314999
  2.9830414969311003  2.3480349263183999  8.5052340973137195
  0.4258917836555002  7.5616107005665603  8.0619501829279390
  8.0444366608511508  2.0943079924791199  8.1266556111514809
  0.6020740023511603  1.2357272505512000  8.1622477302150198
 -1.8460364742281998  6.6166328836977604  8.3100112322411590
  5.3681441955826497  2.2367239083455202  8.3670796352335390
  3.0599999467035013  6.2270383971373597  8.5373062525075003
  5.2722268213960497  7.1640530052449600  8.2595216131573590
 -2.5297402653334897  8.1655336732411197 10.1629849217322406
 -0.2687478032854900  3.1966997286708003  9.6638861245711194
  4.7506580077421905  1.1812079159504800 10.4242408917875800
  3.6768658979768198  7.9564385852679198 12.3172297261036388
  6.6142199990613904  3.7702295068574401 11.7222899151877993
 -0.8298028590571097  7.4922657106123198 11.9529997068955183
  1.1736760773362798  5.3114836789115198  9.6878348425476801
  1.7609903573329402  3.9213957425904802 11.7578293007102204
  1.3845736134840310  7.9881380106114399 10.1460047214915985
  4.5373537603164102  3.9114541194291199  9.9456268781206987
 -1.1829512080825599  2.0489314955771203  3.4890600920866599
  1.8051903520556298  2.0849956604091999  7.4962258524080196
  5.4624041827085303  4.1929932635711999  5.2287503251359997
  7.2958561309538501 -0.0637641283523200  5.4177143780468802
  0.0711378056281301  4.1080571263380001  5.4535696155083002
  2.6694744926716600 -0.2660300632704000  5.3382479527714999
  1.3134162919174406  6.3727674955771194  3.4890600920866599
  3.8097842919174401  2.0489314955771203  3.4890600920866599
 -3.6793192080825596  6.3727674955771194  3.4890600920866599
 -0.6114652034064695  6.8015586796748799  7.2237755403268000
  1.6653702213196402  6.7649178880738399  9.0860506574406390
  2.0019420935401806  2.6372810487003200 12.6026093686443605
  6.6812174847662114  6.9136884592327199  9.1002958545433987
  9.2879427742357610  1.5386212153602399  8.9422657912304597
  5.5851930505128999  4.5845985068250403 10.9573000894299799
  7.7064460632553704 -0.0015412745805600 11.0407833274078584
  0.4273849544370597  4.2221392908032804 10.6256473138641798
  3.5145712859945903  0.2351520802901600 11.0028036423393392
  4.6312043905715798  6.7742488991152801 12.8949479160358997
  6.7186898583101797  2.6587959377760000 12.8350873819027598
 -0.3663563520583996  6.1425995875208805 12.9275984922588396
  6.5492113275000001  2.2174293955325601  7.3469641135755808
  4.2821536626213001  2.4850631695753602  9.4111164094820587
  4.0383672314566601  6.6961032598433601  7.3672374135976204
  4.2761836463490406  5.1227337958992809  6.3354812373912797
