chf_slab_anneal_75
 1.0000000000000000
    11.0399999999999991    0.0000000000000000    0.0000000000000000
     0.0000000000000000   11.0399999999999991    0.0000000000000000
     0.0000000000000000    0.0000000000000000   30.3599999999999994
 C   F  
 120  24
Cartesian
  3.1903400000000000  0.0243600000000000  6.1498900000000001
  7.8319400000000003  9.4076100000000000  6.9283299999999999
  4.1793199999999997  4.8395400000000004  8.9908099999999997
  8.0738500000000002  7.1404600000000000  5.3045299999999997
  2.9582099999999998  6.9549899999999996  6.9856999999999996
  8.6928199999999993  8.8420400000000008  7.9235600000000002
  0.3114600000000000  1.4328500000000000  7.2723500000000003
  5.0189800000000000  7.5648000000000000  4.8169700000000004
  4.5589899999999997  6.1449400000000001  9.4616600000000002
  3.6021999999999998  7.9862599999999997  7.8415499999999998
  4.7860600000000000  8.4051799999999997 10.7916799999999995
 10.1307700000000001 10.2387700000000006  5.1653200000000004
  4.2989100000000002  0.1796000000000000  4.9553799999999999
  3.3126099999999998  4.6828000000000003  3.6590199999999999
  2.7062599999999999  6.9946500000000000 10.4946199999999994
  6.0017199999999997  0.3460900000000000 11.0210600000000003
  6.4463200000000001  1.6485399999999999  5.3559099999999997
  0.2815900000000000  3.8629799999999999  8.4319699999999997
 10.8669700000000002  3.8593099999999998  3.3349899999999999
  4.3194100000000004  0.0403500000000000  8.4862000000000002
  5.3530800000000003  6.4147400000000001  6.0587000000000000
  6.9047099999999997  8.0750899999999994  9.4714899999999993
  8.4332300000000000  9.8138100000000001  3.7250700000000001
  8.9303799999999995  9.0004399999999993 10.5444300000000002
  9.1096500000000002  3.4998399999999998  7.5020899999999999
  2.0883900000000000  8.6437600000000003  8.6675199999999997
  6.7841899999999997  3.3596400000000002  3.0171999999999999
  8.0756200000000007 10.5884699999999992  6.2743700000000002
  9.3570799999999998  7.0304599999999997  8.9610900000000004
  1.2733200000000000  3.0519699999999998  5.3193799999999998
  9.0040300000000002  7.3685000000000000  7.5038600000000004
  4.3758600000000003  2.3740100000000002  4.0493800000000002
  7.2953299999999999  4.6385300000000003  8.3824199999999998
  7.1181000000000001  0.1644600000000000  5.2556399999999996
  1.4422900000000001  1.9231799999999999  8.2889700000000008
  0.2178200000000000 10.2668700000000008 10.5717499999999998
 10.5418000000000003  3.4404499999999998  7.3139099999999999
  0.2022200000000000  8.1292200000000001  6.8735299999999997
  1.2793600000000001  1.0707100000000001  9.4448600000000003
  7.4972099999999999  1.2402800000000000  3.3832399999999998
  6.7293799999999999 10.1563099999999995 10.9994899999999998
  8.1823099999999993  0.3145200000000000  4.1073300000000001
  9.4340399999999995  7.7746800000000000  5.1428099999999999
  9.3519400000000008  0.0806500000000000  5.9052400000000000
  5.0444599999999999  1.5475699999999999  4.8461100000000004
  0.8449100000000000  1.5510800000000000 10.7992100000000004
  6.3432700000000004 10.1875300000000006  4.5460399999999996
  8.1556200000000008  4.5788700000000002  3.9554499999999999
  5.5678000000000001  9.5547199999999997  7.1631799999999997
  5.3842499999999998  1.3538100000000000 10.6146399999999996
  4.1754800000000003  1.4848300000000001  8.5814199999999996
  1.7803599999999999  6.1617699999999997  9.6342599999999994
  1.2580899999999999 10.7284400000000009  9.4099299999999992
  1.7323400000000000  3.4019200000000001  8.5388300000000008
  4.2199999999999998  9.0960800000000006  6.9468100000000002
  4.9526399999999997  9.9276499999999999  4.6341799999999997
  3.3778999999999999 10.2969200000000001  7.4285600000000001
  8.1644799999999993 10.2143700000000006 10.9471600000000002
  3.3772600000000002  0.4093100000000000  3.7841100000000001
 10.9918499999999995  2.6515700000000000  6.0961800000000004
  7.0258000000000003  9.3849900000000002  3.7404899999999999
  3.8227600000000002  5.7912600000000003  6.5295300000000003
  8.5031300000000005  4.1964100000000002  6.3773400000000002
  2.5579399999999999  8.3218499999999995 10.0590700000000002
  2.3995899999999999  3.7733200000000000  5.8640100000000004
  9.6379800000000007  3.0291700000000001  3.3130700000000002
  9.3070299999999992  4.4013999999999998 10.0752500000000005
  2.3623699999999999  3.5032600000000000 10.0499600000000004
  6.2408500000000000  5.2283900000000001  5.8589700000000002
  5.4019899999999996  7.4440099999999996  3.3644099999999999
  7.2262100000000000  2.4805700000000002  4.3211300000000001
  3.6568700000000001  9.2111000000000001 10.3417899999999996
  1.0768500000000001  3.2447699999999999  3.7173099999999999
  7.3322399999999996  6.7288399999999999  4.1976300000000002
  5.6325500000000002 10.4962400000000002  8.1238100000000006
  4.2619199999999999  6.8814299999999999 10.5317000000000007
  3.7831700000000001  4.7900499999999999  7.6241899999999996
  3.5725199999999999 10.2829400000000000  9.5101300000000002
  6.5042200000000001  7.2934999999999999  6.9599299999999999
  7.8200700000000003  6.6505500000000000  6.6804100000000002
  2.5603899999999999  2.2989099999999998  5.3107300000000004
 10.9008599999999998  7.6534399999999998  9.4241899999999994
  8.7098899999999997  4.3149800000000003  8.7208600000000001
 10.6172100000000000  0.2887700000000000  4.2735399999999997
  1.3771899999999999  2.8841600000000001 10.9642900000000001
  3.4081299999999999  2.1271300000000002  7.4595900000000004
  9.5474800000000002  2.5484100000000001  4.7967399999999998
  6.5746799999999999  8.6674399999999991  6.7101199999999999
  2.9277000000000002  3.6101000000000001  7.3658200000000003
  4.6976699999999996  7.2951300000000003  8.6624300000000005
  0.2571000000000000  0.5161200000000000 11.3757999999999999
  9.4108900000000002  1.0576700000000001  4.7749300000000003
  1.4645999999999999  4.2391199999999998 10.9641599999999997
 10.4848900000000000  9.0593599999999999 10.3481799999999993
  2.9374099999999999  1.7818099999999999  3.8948499999999999
  8.2849799999999991  3.4349500000000002  4.9807699999999997
  6.1058300000000001  7.5354700000000001  8.4245000000000001
  2.9649600000000000  5.0241899999999999  5.1689800000000004
  6.1246600000000004  8.8522800000000004 10.5444800000000001
  6.7902600000000000  7.8643900000000002  3.2969800000000000
  9.6561800000000009  9.1558499999999992  4.3270799999999996
  7.3997200000000003  5.1437400000000002  6.8367500000000003
 10.6919000000000004  4.6378300000000001  9.5146899999999999
  4.5697299999999998  8.7111599999999996  5.3854899999999999
  4.7220800000000001  9.6678599999999992  3.0122200000000001
  2.9533600000000000  1.4380400000000000  6.3277500000000000
  0.5779900000000000  6.7989699999999997 10.3593899999999994
 10.0571400000000004  7.6668799999999999  6.4993800000000004
  3.8642400000000001  3.6040199999999998  9.8617000000000008
  4.5611899999999999  2.1926600000000001  9.7301699999999993
  1.7346299999999999  6.6054300000000001  8.0431699999999999
  5.7947300000000004  4.7309999999999999  3.3699400000000002
  0.8903600000000000  7.8690400000000000  8.2202000000000002
  0.6232300000000000  5.3185099999999998 10.3790200000000006
  8.3907900000000009  8.2597400000000007  9.3746399999999994
  9.3256200000000007  5.5753199999999996  9.2923899999999993
  4.4582600000000001  3.7557499999999999  3.4185099999999999
  2.3536899999999998 10.0917399999999997  8.5787300000000002
  6.8348599999999999  5.3951799999999999  4.3240999999999996
  3.6777299999999999  5.9003399999999999  3.0883699999999998
  5.2938799999999997  4.1422600000000003  5.9243199999999998
  0.8590800000000000  8.8631399999999996  5.9733999999999998
  8.4052600000000002  2.2223199999999999  7.7089600000000003
 10.3403799999999997  6.9894699999999998  4.3045099999999996
  8.9723900000000008  3.9374400000000001 11.3428699999999996
 10.9894400000000001  4.8405699999999996  4.3630199999999997
  6.2370599999999996  1.8302600000000000  6.7778499999999999
  2.4063900000000000  7.5707800000000001  5.9165400000000004
  9.0585000000000004  5.5498500000000002  3.6611500000000001
  0.7731200000000000  0.2407200000000000  6.7799600000000000
  2.2753000000000001  8.9462899999999994  3.4905599999999999
  6.8064799999999996  0.0079400000000000  8.5573200000000007
  8.5591200000000001  8.0409699999999997 11.7939699999999998
  9.6160099999999993  5.0688399999999998  6.0287699999999997
  6.4566900000000000  3.5158000000000000  8.4231300000000005
  9.9128699999999998  9.6065299999999993  7.9622599999999997
  2.2798600000000002 10.3626600000000000  5.3611800000000001
  0.9399500000000000  5.5885300000000004  7.3557300000000003
 10.3151499999999992  1.0081000000000000  8.0258400000000005
  1.8607499999999999  5.8245100000000001  4.9171800000000001
  6.8308600000000004  5.4544800000000002  9.4919399999999996
  8.7696100000000001  0.4451300000000000 10.8923600000000000
  0.0343000000000000  8.9246499999999997  3.6883200000000000
  0.8001200000000001  0.7930000000000000  4.7898100000000001
