edited
1.0
   4.5558614520567771    0.0000000000000000    0.0000000000000000
  -2.2779307260283885    4.4111938828663035    0.0000000000000000
   0.0000000000000000    0.0000000000000000    5.5767827748278824
Si O
3 6
direct
  -0.0000000000000000    0.5000000000000000    0.6666666870000029 Si
   0.5000000000000000    0.5000000000000000    0.3333333429999996 Si
   0.5000000000000000   -0.0000000000000000    0.0000000000000000 Si
   0.2079885169616318    0.4159770339232635    0.5000000000000000 O
   0.5840229360767338    0.7920114680383705    0.1666666719999981 O
   0.2079885169616318    0.7920114680383705    0.8333333129999971 O
   0.7920114680383705    0.5840229360767339    0.5000000000000000 O
   0.4159770339232635    0.2079885169616318    0.1666666719999981 O
   0.7920114680383705    0.2079885169616318    0.8333333129999971 O
