chf_slab_melt_275
 1.0000000000000000
    11.7567382899999995    0.0000000000000000    0.0000000000000000
     0.0000000000000000   11.7567382899999995    0.0000000000000000
     0.0000000000000000    0.0000000000000000   30.8378255259999996
 C   F   H  
  67  67  10
Cartesian
  5.7216500000000003  5.8474100000000000 19.4422099999999993
  3.9917400000000001 10.2162600000000001 20.7390100000000004
  4.6536700000000000  8.3332300000000004 19.5469499999999989
  5.3677099999999998 10.0781200000000002 21.3414099999999998
  6.3388799999999996  5.5763699999999998  7.6144800000000004
  6.4418600000000001 10.7229399999999995 22.0504299999999986
  7.1791400000000003  4.0706899999999999 17.0063899999999997
  7.3323000000000000 11.6075800000000005 21.2982599999999991
  1.4250300000000000  3.4606100000000000  3.5192500000000000
  2.0660599999999998 10.0885300000000004  3.1224699999999999
  1.6109100000000001  6.1287500000000001  5.6780299999999997
  6.6902400000000002  4.5899400000000004  9.6558399999999995
  1.0505199999999999  4.1077199999999996  4.7844199999999999
 10.1473600000000008  9.7771699999999999  3.6771099999999999
  3.5660799999999999 11.1072000000000006  4.7461900000000004
  5.8553899999999999  4.8371599999999999  5.2917100000000001
  3.7740200000000002  1.0026200000000001 11.5172699999999999
  4.1513499999999999  8.9147499999999997  8.5066900000000008
  0.6686100000000000  8.5429600000000008 17.1341099999999997
  9.0634499999999996  7.8242500000000001  9.5697399999999995
  5.8563799999999997  9.8445499999999999  3.4377800000000001
  1.2411600000000000  5.4096299999999999  4.7115600000000004
  5.4230200000000002  7.0971799999999998 20.2888300000000008
  4.7308199999999996  9.0536499999999993  3.9955900000000000
  1.5958399999999999  6.1479999999999997  3.3996300000000002
  3.9385699999999999 10.6965900000000005 15.4232700000000005
  7.4611099999999997  3.0603799999999999 17.8545300000000005
  6.8797199999999998  7.1077899999999996 20.5316399999999994
  7.6612700000000000  0.2614600000000000 20.1326099999999997
  5.8170400000000004  5.0462300000000004  6.4442700000000004
 10.9576899999999995  4.4341400000000002  4.2891199999999996
  6.2140599999999999  1.8777999999999999  3.0422799999999999
  6.4332300000000000  3.6365200000000000 10.6805699999999995
  7.0373200000000002  3.4575000000000000 11.9764199999999992
  9.6136499999999998  9.8470700000000004 24.3425399999999996
  1.4340200000000001  4.8151900000000003  6.7563399999999998
  1.5600700000000001  3.7776999999999998  6.1465300000000003
  4.5301600000000004  1.5127999999999999  4.7980099999999997
 10.3917400000000004 10.7353199999999998  6.9175100000000000
  2.4247000000000001  3.9181100000000000 17.0320999999999998
  5.1961300000000001  2.4731999999999998  4.1258200000000000
  9.7096000000000000  2.9201999999999999  9.3946199999999997
 10.8046500000000005  9.7898800000000001 23.4549300000000009
  6.5279900000000000  5.4955299999999996  8.8194800000000004
  3.2931599999999999  9.7569099999999995  4.2125199999999996
  7.9817799999999997  2.0918000000000001 18.4594400000000007
  9.6892800000000001  7.2194799999999999 10.5658999999999992
  6.0241300000000004  5.9147600000000002 18.0600500000000004
  5.5885199999999999  8.7276699999999998 14.6847300000000001
  8.2994299999999992  0.9774100000000000 19.0322400000000016
  1.9865999999999999  2.4738400000000000  5.9122800000000000
  3.5135900000000002  4.4394600000000004  0.4875900000000000
  9.2791800000000002 10.2366399999999995  4.5716299999999999
  6.4783299999999997  5.1646799999999997 17.0706500000000005
 11.5888399999999994  9.6308199999999999 17.1250000000000000
  5.9073700000000002  3.7250899999999998  4.2099799999999998
 10.1785300000000003  8.2736000000000001  3.4504899999999998
  4.6383999999999999  0.2057900000000000  4.1096199999999996
  6.5970199999999997  0.4131300000000000  3.1527500000000002
  2.6860499999999998  0.3586600000000000  5.6596200000000003
  0.0392200000000000 10.9001199999999994 16.4445000000000014
  0.1741600000000000  7.7046200000000002 19.6597000000000008
  2.9639099999999998  1.6512800000000001  5.5629700000000000
  9.1805299999999992  8.0899400000000004  8.3414800000000007
  3.9330599999999998  9.1167499999999997 20.4080300000000001
  4.6154700000000002  9.4679300000000008 15.2875800000000002
  5.8145100000000003 11.2419399999999996  3.7063000000000001
  8.0720899999999993  6.2738800000000001 20.7826799999999992
  6.6921799999999996  2.6748200000000000 13.0056100000000008
  5.2263999999999999  7.8705900000000000 13.9658999999999995
 10.5456400000000006  8.3292400000000004 19.9768499999999989
  9.5707400000000007 11.3954100000000000 18.7102499999999985
  8.3325300000000002  3.5884299999999998 12.2167800000000000
 10.6495700000000006  3.4502100000000002  3.4383400000000002
 10.8102800000000006  2.6815000000000002  8.9953699999999994
 10.8213699999999999  5.6913499999999999  3.8022399999999998
  3.0224500000000001  6.2392300000000001 13.5390499999999996
  2.9044800000000000  5.5709200000000001  3.1012800000000000
  5.7560900000000004  9.2096699999999991 18.3565000000000005
 10.9172600000000006  9.0314499999999995 22.3832999999999984
 10.2568500000000000 10.4825300000000006  8.0296599999999998
  1.6874499999999999 11.4237699999999993  3.1589600000000000
  8.2105300000000003  7.4886400000000002  7.6644500000000004
  4.2671000000000001  0.4543800000000000 12.6955299999999998
  3.8944899999999998  4.7439200000000001 30.0146900000000016
  5.9691599999999996  5.5370999999999997 15.7659800000000008
  9.4111399999999996  2.0741999999999998  4.8978599999999997
  3.5380600000000002 10.8599800000000002 16.7276999999999987
  6.0322500000000003  6.0838000000000001  4.5503400000000003
  6.1481800000000000  1.2401599999999999 10.5710599999999992
  9.2885899999999992  7.7172999999999998  4.4155400000000000
  9.4568999999999992  0.2093600000000000  7.0949099999999996
  3.4907499999999998  3.4236100000000000 17.5399700000000003
  4.6348900000000004  7.8770100000000003  3.2910100000000000
  9.1315100000000005  1.1085100000000001  9.5483799999999999
  7.2394900000000000  3.1775500000000001  4.2955399999999999
  1.1031000000000000  2.1118500000000000  3.2602600000000002
  2.0430100000000002  8.0431500000000007 17.2863399999999992
  4.0930600000000004  2.4241799999999998 11.6129099999999994
  1.9113300000000000  3.0235799999999999 16.0924699999999987
  4.1847300000000001  0.2169200000000000 10.3501799999999999
  8.1350700000000007  9.7534399999999994  4.9330699999999998
  6.9770399999999997  9.0018100000000008 15.0101700000000005
  2.8808799999999999  6.0031800000000004 26.4476799999999983
  8.7570599999999992  8.4176800000000007 24.1013699999999993
  1.5303000000000000 11.4027999999999992  5.7254899999999997
 11.7221600000000006 11.5168199999999992  7.0371699999999997
  2.2224800000000000 10.1356400000000004 28.2682399999999987
  7.5165300000000004  7.1950399999999997  3.1296900000000001
  3.6253600000000001  8.0742999999999991 18.5951899999999988
  7.4033400000000000  8.5425199999999997 20.7132199999999997
  2.2963000000000000  0.6308400000000000 11.8170999999999999
  8.0530600000000003  2.2852800000000002 26.8362699999999990
  5.9239800000000002  4.4525499999999996  3.0334599999999998
  1.8057799999999999  4.9059600000000003  8.0237900000000000
  3.1630500000000001  8.9189799999999995  7.5631399999999998
  4.2817499999999997 10.6057600000000001 30.6181100000000015
  2.3986100000000001  9.7804199999999994  1.7548200000000000
 11.4967400000000008  7.8052900000000003  3.5895299999999999
  0.7062000000000000  7.5316299999999998 20.9560500000000012
 10.9127200000000002  0.9394100000000000  3.1445699999999999
  8.4943100000000005  5.2748900000000001  4.7328700000000001
  6.8674700000000000  2.4668500000000000  2.0023499999999999
  1.2317100000000001  4.1858399999999998 17.7796400000000006
  9.6745300000000007 10.4216300000000004 25.5044900000000005
 11.4138900000000003 10.8308999999999997 15.2951899999999998
  0.9530300000000000  9.5372299999999992  3.5382400000000001
 11.0074600000000000  6.6131300000000000 10.6486300000000007
  0.4961000000000000 10.0155899999999995 24.0893599999999992
  2.7728799999999998  3.3200500000000002  3.5289899999999998
  4.5376799999999999  5.4949399999999997  0.8836700000000000
  2.0050200000000000  7.4234299999999998  3.6622100000000000
  3.4318599999999999  9.9618599999999997  9.9876799999999992
  7.9328399999999997  0.7329700000000000  2.7387000000000001
  6.5969699999999998  1.6302800000000000 11.1681399999999993
  9.8000000000000007  1.0293000000000001  3.3490500000000001
  8.5590899999999994  5.0843499999999997  3.7386900000000001
  2.1016599999999999 10.7608499999999996 27.2049200000000013
  3.8611900000000001 11.2999200000000002 14.5172100000000004
  9.9611199999999993  1.5695800000000000  4.3166200000000003
  7.2673399999999999  2.2091300000000000 26.4960400000000007
  3.5581900000000002  6.2603000000000000 25.7838999999999992
 11.0946700000000007 10.2610700000000001  3.4907599999999999
  2.3415900000000001  5.6045400000000001 13.6456999999999997
