Si  O 
 1.0000000000000000
    11.2057552410000003    0.0000000000000000    0.0000000000000000
     0.0000000000000000   11.2057552410000003    0.0000000000000000
     0.0000000000000000    0.0000000000000000   11.2057552410000003
 Si  O  
  33  66
Selective dynamics
Cartesian
  4.5477200000000000 10.2791300000000003  3.3965800000000002   T   T   T
  4.8592300000000002  5.3085100000000001  5.9125899999999998   T   T   T
  7.9248799999999999  4.9707900000000000  1.0729299999999999   T   T   T
 10.4948999999999995  8.5231999999999992  5.4164199999999996   T   T   T
  3.9514600000000000  3.8670399999999998 10.0831700000000009   T   T   T
  9.9503900000000005  2.5325899999999999  5.6576599999999999   T   T   T
  7.8784799999999997  7.4890200000000000  6.8483299999999998   T   T   T
  1.9560599999999999  1.5163300000000000  9.6879000000000008   T   T   T
 10.6346100000000003  4.9602100000000000 11.0962700000000005   T   T   T
  6.3714399999999998  7.2723300000000002  0.0093800000000000   T   T   T
  1.5637300000000001  2.4038200000000001  6.8296099999999997   T   T   T
 10.5723699999999994  1.9835000000000000 11.0426000000000002   T   T   T
  2.3899200000000000  1.3719300000000001  4.0162000000000004   T   T   T
  5.4217700000000004  0.0479500000000000  7.5918700000000001   T   T   T
  1.7895399999999999  6.3012100000000002  1.4884800000000000   T   T   T
 10.7841100000000001  1.4220900000000001  2.8657800000000000   T   T   T
  6.0498300000000000  0.6337600000000000  1.4012300000000000   T   T   T
  0.3979300000000000  9.2300799999999992  8.0299200000000006   T   T   T
  0.1370300000000000  6.1711600000000004  4.0257899999999998   T   T   T
  3.8172299999999999  8.4468599999999991  0.9350900000000000   T   T   T
  5.9927700000000002  3.5759099999999999  1.2661700000000000   T   T   T
  9.2073800000000006  5.2819599999999998  5.9563699999999997   T   T   T
  9.6397800000000000 10.7502399999999998  9.6730099999999997   T   T   T
  4.5185899999999997  6.4972000000000003  8.9364799999999995   T   T   T
  8.4460300000000004 11.1114899999999999  6.5835200000000000   T   T   T
  5.1733700000000002  8.0543800000000001  5.5925700000000003   T   T   T
  2.6658599999999999  4.4794299999999998  3.6713200000000001   T   T   T
  7.9870299999999999  9.7445199999999996  0.6925400000000000   T   T   T
  9.1477599999999999 10.1159800000000004  3.5740599999999998   T   T   T
  3.4397000000000002  8.7615300000000005  7.4998699999999996   T   T   T
  4.5219199999999997  2.9353600000000002  7.2881799999999997   T   T   T
  4.3201999999999998 10.9813700000000001 10.3146100000000001   T   T   T
  9.9834700000000005  6.6572800000000001  8.5514200000000002   T   T   T
  1.1667600000000000  0.9198300000000000  3.1133000000000002   T   T   T
  8.9786099999999998  8.2022700000000004  5.9035900000000003   T   T   T
  2.3941800000000000  7.6466099999999999  0.8383400000000000   T   T   T
  8.4926200000000005 10.4573400000000003  5.0662399999999996   T   T   T
  5.6031800000000000  6.5257600000000000  5.1174999999999997   T   T   T
  6.6439899999999996  4.7856699999999996  2.2204700000000002   T   T   T
  5.8585900000000004 10.8166899999999995  2.7162400000000000   T   T   T
  0.6689400000000000  6.8683300000000003  2.5738400000000001   T   T   T
  7.7520400000000000  6.0068799999999998  6.1867599999999996   T   T   T
  9.9114900000000006  5.5097699999999996  4.5013199999999998   T   T   T
  2.8276400000000002  5.4267799999999999  2.3679199999999998   T   T   T
  9.3763799999999993  1.2756500000000000  6.4140899999999998   T   T   T
  0.1126700000000000  3.0980200000000000  6.3599699999999997   T   T   T
  5.4877799999999999  3.8561399999999999  6.3911600000000002   T   T   T
 10.9904600000000006  9.6459799999999998  6.5596300000000003   T   T   T
  1.1982200000000001  4.8164999999999996  4.2268400000000002   T   T   T
  6.3514299999999997  8.1798199999999994  6.8479700000000001   T   T   T
  4.6137100000000002  1.3338099999999999  7.1704299999999996   T   T   T
  8.8188499999999994  3.7104900000000001  5.7608699999999997   T   T   T
  8.3627699999999994  9.3440100000000008  2.3060200000000002   T   T   T
  0.0279300000000000  7.7171599999999998  8.4648099999999999   T   T   T
  2.9496799999999999  3.2924500000000001  6.8983800000000004   T   T   T
  5.5201700000000002 11.1653300000000009  9.2486099999999993   T   T   T
  7.4251199999999997  3.6460400000000002  0.2976700000000000   T   T   T
  2.8767200000000002  2.8943599999999998  3.4298999999999999   T   T   T
  2.9536500000000001  0.2585900000000000  9.6554099999999998   T   T   T
  3.5964800000000001  7.9802000000000000  6.0803900000000004   T   T   T
  4.6594199999999999  5.8787399999999996  7.4150900000000002   T   T   T
  5.9764400000000002  2.1354400000000000  2.0590000000000002   T   T   T
  0.7466000000000000  1.0904600000000000 10.7311399999999999   T   T   T
  9.5609599999999997  4.8568199999999999  1.1965399999999999   T   T   T
  4.5181600000000000  9.9900099999999998  7.1611000000000002   T   T   T
  6.9333299999999998  8.7842400000000005 11.1510899999999999   T   T   T
  2.0019000000000000  9.3165800000000001  7.7511099999999997   T   T   T
  7.6778899999999997  6.4601100000000002  0.5611699999999999   T   T   T
  7.2154800000000003  0.0088600000000000  0.5810900000000000   T   T   T
  4.7667099999999998  3.8488099999999998  0.2873400000000000   T   T   T
 10.4901800000000005  2.3014700000000001  1.4879400000000000   T   T   T
 10.5855999999999995  3.4748000000000001 10.3872900000000001   T   T   T
  6.8464999999999998  0.2193700000000000  6.8919499999999996   T   T   T
  8.5868000000000002  7.5298800000000004  8.3036399999999997   T   T   T
  3.9817000000000000  9.5336400000000001 10.9639699999999998   T   T   T
  3.6013700000000002  5.0663700000000000  4.8904699999999997   T   T   T
  3.5246300000000002  5.4148800000000001  9.7173300000000005   T   T   T
  0.9459500000000000  5.3618199999999998  0.4624100000000000   T   T   T
 10.3360800000000008  9.0436800000000002  3.8546700000000000   T   T   T
  4.8248899999999999  3.2742200000000001  8.8745999999999992   T   T   T
  1.3365499999999999  1.5846199999999999  8.2082400000000000   T   T   T
 10.1569699999999994  5.6053300000000004  7.2781000000000002   T   T   T
  4.7824000000000000  0.7856800000000000  0.3814300000000000   T   T   T
  5.2556700000000003  9.2275899999999993  4.5221499999999999   T   T   T
  0.3309800000000000  7.2401499999999999  5.2037599999999999   T   T   T
  5.9447599999999996  6.6867000000000001  9.7919800000000006   T   T   T
  1.9002600000000001  1.3231800000000000  5.5926400000000003   T   T   T
  3.5861000000000001  0.2837200000000000  4.0044199999999996   T   T   T
  3.8107300000000000  9.3951899999999995  2.2771800000000000   T   T   T
  3.8890099999999999  8.0024200000000008  8.8160100000000003   T   T   T
 10.3292900000000003  2.3443000000000001  4.0861900000000002   T   T   T
  5.0146899999999999  7.3544700000000001  0.8696900000000000   T   T   T
 11.0986300000000000 10.2695500000000006  9.0790400000000009   T   T   T
 10.0236199999999993  5.9701899999999997  9.9905399999999993   T   T   T
  9.3449200000000001  9.8166100000000007 10.9471000000000007   T   T   T
  8.7371900000000000 10.7691599999999994  8.2627400000000009   T   T   T
  9.6769499999999997  0.1802900000000000  2.7580000000000000   T   T   T
  9.4803599999999992  1.1278600000000001 10.2673600000000000   T   T   T
  2.6588699999999998  2.8442099999999999 10.2033699999999996   F   F   F
