Si  O  C  H  F 
 1.0000000000000000
    10.6027000000000005    0.0000000000000000    0.0000000000000000
     0.0000000000000000   10.6027000000000005    0.0000000000000000
     0.0000000000000000    0.0000000000000000   10.6027000000000005
 Si  O   C   H   F  
   6  12  48   6  36
Cartesian
  1.1506311926690000  3.0538429855810003  6.4514617663960001
  6.2788950839249997  3.1394277679270002  6.6124215671500002
  5.0599433792930002 10.9947383313909999  4.2580195096820006
  2.7940409984549999  9.4946321801840003  5.9949982489950004
  4.7116383226730001  7.3132534634760011  2.7769985365559999
  9.5634865380920004 11.5142666023649998  3.8580013742170003
  1.6909786072820001  3.9959992256620001  2.0142927819210001
  0.8387641170580001  5.8546599575520002  7.3696442415070003
 10.7265626498860005  5.2729844906630001  3.1077824193720005
 11.2635654427840013  7.3187231843519998  5.4111217676130003
 10.4594515854880008  8.4310370674370017  9.2855300778910017
  7.2040191467260009  5.8933042544040006  9.9005237873410010
  2.4704505174540001  2.1488951186910001  3.2656789940689999
  9.2550273823149993  5.2993027246570001  8.9696671627310014
  3.7938362724380004 10.0668790900709997  4.6184836366350002
  6.3210326523460010  4.6028552568350003  3.0610479443390002
  9.1967320412830009  7.5249785677220000  7.2812224947219999
  9.2935064891010004  4.5997072091780007  5.3252552715280004
  4.9830356345730005  7.8550229122130002  8.3212764326589994
  0.4493499539170001  7.5798166863650005 10.0663397307220013
  8.6759292197420006  2.2893391190529999 10.2640798736680008
  7.6314968968399999 12.0609383154740009  9.6221514892460007
  6.9011359508790004 10.0221997363790010  8.2906852045380006
  9.5269494218380011  6.0036986125610001  3.2052874992470000
  1.0112145939370001  5.9307123824630006  0.9872835578480000
  6.2273315031500003  4.0742109964550002  1.8963592679020000
  5.6139538572340006 10.1342714416760007  8.8776449510800006
  3.9349610721670003  6.9661593412230003  8.9159792249840013
  2.0046745426160002  5.9298508070610003 10.5368330588440013
  8.2374208446560004  5.6117832724900003  9.4021385724910012
  3.8225695894380003  2.8038920730520003  1.2748355675760001
  9.4588219850420003  7.6081222904470005  1.2978959099410001
  8.9940983281789997  7.0211356130470008  2.5588435309220001
  8.3990837104470000  8.3067914480270009  6.8745308078230005
  2.9446428095249999  3.2179662079070002  2.4948635522850000
  9.1253772486340008 10.2987804962550005  8.7869797790020012
  2.9421651705890000  5.0122838186849998 10.0696818077890011
  9.0182592308040004  8.7712965832430001 11.0991238213770007
  9.3928408528070015  9.0748512480810000  9.7920153314329994
  2.8926466385900000  7.8348156503909996  9.4058802653210005
  0.7386344448250000  6.6603705814679994  6.4222153847430006
 10.0065322326160011  1.8405974420350002  9.9412642379830007
  7.9001705871640002 10.9747867006660016  8.7325140271830008
  8.0017192187380015  9.5241863582179995  1.2900258438120000
  7.1436140804479997  3.5629902590120004  0.8397065910610000
  3.8222959337510001  5.5336533545410003  9.0957920046890006
  5.2999720731080000 11.3010015619710007  9.7035855265959992
  8.4327217304400008  3.2773016738090002  0.6107205032690001
  1.7805273150500003 12.2339470245080015  0.1941878143380000
  3.9346299498460002 11.4791005212480002 10.1784584059800007
  1.8637304128949999 10.8045311947410010  0.3034267962760000
  7.2166230003239997  8.7155310464309999  7.6668574314750000
  8.8917297898140006  5.5028016180809995  4.5563942254350005
  4.6678520344020002  9.1371168761549999  8.7386999604440003
  1.0403783805569999  5.1181107457359998  2.0649337157419998
  3.0750400094480002 10.3514576786110002 10.0416507076099997
  3.2621231665699999  1.9293555064640000  0.3090504683560000
  6.2733497657979997  7.7283571205010011  7.7061047038760009
  5.1415233097949997  3.2216587042090001  1.2374605199410000
  3.3110529306380001  9.1684537921670000  9.3039341385239993
 10.5809387004390008  6.9771152171600006  0.6463373051630000
  6.1327751401719999  2.8187387157810000  0.2534445021790000
  1.8013849464900002  7.1674939054960003  9.9032423196210004
 10.1291147125040002 11.3417786979550019  9.1338550615270009
  6.2684000013300007  1.7209078028150000  9.9234958092150016
  0.7444361362380001  2.3391921662369999 -0.3117446144260000
  2.0684992977250003  1.4755565535999999  2.6370811723030001
  4.4228988105450000  4.7819453565080003  8.4352376451230011
  8.1740736351550005  7.3734514590230011  3.0398352284760004
  3.1062923159140001  4.0370251009880000 10.4200906521430010
  1.2800776484830001  9.0376319541090009  3.6128228429850004
  8.1317407650000000  9.0438918942160011  2.2285384660380001
  8.3950846900879998 10.8221254211479998  1.4081051449560000
  5.3560455123280004 10.9141651272539999  2.7090525119570001
  0.7264586222260000 10.0240340034790005  0.3791934784220000
  1.2300918554950000  8.4218643535860007  2.8663065630340001
  2.4327819870830001 10.7421472405350009  1.6745199300450000
  5.1681623814910003  2.1073111172369998  7.1275180155510007
  2.2668728459690000  3.4334167828519999  7.5717832326290004
  5.1488821137300000  6.3914915168450008  1.5297018918250000
  6.1206301714300002  8.0000181215500010  3.2781191419790003
  6.7222105111370007  9.4506110421080010  0.7008776999900000
  9.7785382394629998  9.9586876548930015  3.6181410512780001
 10.7910078749989999 12.2625548055400007  3.1441046188970003
  1.4320867559240003  9.8736970478549999  5.1492704906310003
  0.8937322248030000  3.6464942614830003 10.1400368718550009
  1.3089028908920000  3.8602792582850003  5.1346751318920001
  3.6848210074700005  4.0765664922870002  3.2371671674719997
  6.9685206685400010  3.8079059493109999  7.8086471265210005
  7.9337692711400001  6.4400502924399996  4.9064649496860007
  9.5939033517979997  9.9333168781710004  7.5425539213230008
  8.3980219560689999  8.8427509352450002  5.6144393548669997
  3.2745124215199999 10.6615726580470014  7.0371439936150004
  9.6342487458380006 11.7237202901900002  5.4441159916620006
  6.5408144302409994  6.4412927168260001  7.2027774645290004
  1.8706449637000002 -1.7852882454310002  7.2662818060439998
  3.9594262722820002  8.5215912292460008  1.8869374966280001
  3.4681253574640003  8.0396567396080005  5.5569333848500007
 12.2208520538460004  1.5409849670840001  6.1177408296530000
  7.3807460105960008  2.3677571123610002  5.6589220284740005
  5.3943542337250001  4.2875705069060004  5.9152260788430002
  6.2896392239430012 10.4412228935130003  5.1254030707420002
  4.9911334466980009  2.0116675534010002  4.4934791819860003
  0.7875402467910001 11.0145124729179997  8.6485201799719995
  9.4289417739830004  3.8128483979160004  1.3376654713440002
 -0.3059322142860000  3.0311919074360003  7.0306977640690000
  8.1650851962300006 12.1583010010880006  3.4048702854260000
  3.6686708688030003  6.4922122896030006  3.6002428454620006
