Si  O  C  H  F 
 1.0000000000000000
    10.1720559999999995    0.0000000000000000    0.0000000000000000
     0.0000000000000000   10.1720559999999995    0.0000000000000000
     0.0000000000000000    0.0000000000000000   10.1720559999999995
 Si  O   C   H   F  
  21  42  14   7   7
Cartesian
  7.6985961793551194  7.1422316093332796  0.8220157466655200
 -0.1245969036206400  3.5422667349244796  3.4645896602505597
  3.7704486346893602  9.2094234804399999 -0.0029999427555200
  6.5706091587525597  2.9525229700208797  6.0400566894335199
  2.3909376939775999  6.4865411847349597  5.8810424308957598
  8.4258802805365605  1.2748828002247201  4.4022619887977603
  3.9907559390223999  3.8891208242927999  0.0611774912391200
  8.0925136253803203  5.4943675904631188  6.6887370416394392
  2.1607669538235998  1.8037979754100000  3.7985925775095999
 -0.3432596916601600  3.7523069762544803  8.4134806459931202
  0.0991838526747200  0.2918566307520000  0.3511608361581600
  3.1789295408520797  6.5726162071219196  1.5144901567299198
  6.6170312689991997  4.2415909057787191  1.4817892345422399
  1.4628227240863201  3.7343211537175200  5.8543084367576803
  4.2545258956294401  0.1628736383047200  2.6964731970356000
 -0.2328124230972000  7.4277347739076802  4.8536073027793600
  4.6702909852519996  7.5080739773573599  4.1748772730616004
  0.6726796908089600 10.3134883683445597  5.6463792022093600
  6.9460131576960791  9.1897606927508804  3.0690098968338395
  5.0964242481142392  4.4708029296547203  4.2078254779306397
 -0.0059196279892000  6.4388936469019997  2.1367044467528000
  6.9819925335325603  1.6368586680426398  5.1152445861254394
  8.1718920781408002 10.0055918293684005  3.7753979502567199
  6.6649963784204802  5.8107430467180796  7.5131769926908802
  4.0228352468679196  6.5542464911915195  2.8632923724216002
  3.5658754665771202  7.5520418756528791  5.4256566745503996
  0.2242940382411200  4.0932851774744003  4.9507863449370397
  1.1110315256178400  2.6377398474121603  2.7406721027228800
  1.7973741186048799  6.6851478316798403  7.4643112494313595
  3.6270287483229597  7.6564907845132000  0.3767526101280000
  8.7886440758122397  2.4793247229727999  3.3703843169439200
  6.2480739122662392  8.1551005566988000  4.1265372216561600
  9.4522493771841596  7.4713451244347997  3.2914775424201599
  2.5520708935007197  9.5877075953193600  9.3016530035892000
 -0.4300907012490400  4.8895145587387994  2.5896410771750400
  9.0086345206008804  5.0153520463092001  7.9324861283443999
  9.2410614227756795  6.7182818800119994  0.8695751944935199
  6.7333960294196000  5.8288741262147203  1.1028268469687998
  3.9993979143588798  9.0091978490621596  3.5297886738292799
  1.2421338659327199  6.6384744716500004  4.7899761081919197
  8.8875472814619201  2.3504185295483198  8.5495114491605602
  1.4856437317223199  0.3010721066057600  4.2116679720846397
 -0.0396194460760800  8.9003001915102402  5.6521671020733599
  0.9734833568568799  3.6181728546487997  7.4276319344215196
  5.4549506700219998  3.5189774058302397  0.5762522618691200
  3.5349598419379995 10.2018233012372779  1.2142439193507999
  5.3372128854827192  5.9559148662893593  4.7195287205994401
  3.2298537013637603  5.0748674235979196  0.7703878833197599
  1.5759102515046399  6.7105210081662401  1.8641494957019198
  2.0805487978403199  2.4050132764675998  5.3416529879267198
  3.3750002942361594  2.4432035486756796 -0.1662723256554400
  5.8649089397563996  0.1834506903871200  2.4390699302789600
  9.6071375446466387  1.2429182331708799  5.5501221552075197
  1.0328737195773599  1.5649189381144000  0.2496717921527200
  7.9377097842620801  3.9314170469052798  6.0636096782192803
  7.3429704209363198  8.4345524668793601  1.7004946434963999
  6.1824989394977594  4.1254773951415196  3.0578368088028798
  3.6870576109985600  1.6560742921500000  3.2452362913292001
  5.2666040673615191  9.4148651386935196  9.3756743430572786
  5.1826824692297597  3.5763226766919196  5.5301166709517595
  8.8895408009967998  6.6149040886484798  5.8978438192320803
  2.7177749063874397  4.9302093945751997  5.9821366974078396
  6.0408544837856004  8.0008781503015189  6.9454666131271994
  1.9240269981842399  0.1862985609054400  7.0647586878232795
  1.9993109949636001  9.1701682956892796  8.0572730459711188
  0.7295989559653600  8.6036316696674398  8.3772847070843994
  5.8474899041797599  6.9135113026443191  7.5105258497355987
 -0.3490150409449600  9.5070743177307193  8.9286509322289600
  8.4804988300668800  9.5560694495425604  8.5565213181118409
  6.0285282914864800  0.2480119160546400  8.8986357379869592
  7.7439837915065599  1.7206977708002398  8.3175427981085601
  2.9930166025895995  0.8392692828910400  7.3662932160948005
  0.6789226884583999  7.2778170798890400  8.1803506513075988
  4.1670590308200000  1.2868287610705600  7.7306222873477592
  5.4533691187551199  1.3982522418478400  8.1557449564463997
  7.4914841677858401  0.4216437242260799  8.7619372410636807
  6.5036405125915202  2.3693217698159197  7.9051676478685593
  2.6388423965619996  8.3086357389927201  7.6904483624991196
  2.4879106502807198  1.9169999384583198 -0.3637446866357600
 -0.1366017606707200  6.5579325391242396  8.1856443926911204
  1.0688695741445600  2.2007894167584001  1.0487368374682400
  8.1124947984222402  8.9426225563066399  7.7280715425851998
  6.5381872560609589  3.3442309437623194  8.4717766989291192
  4.9040604970982393  6.8013187127128791  8.0942544710441595
  0.5430239185778400  3.9990562349978398  9.7627033744798393
  3.6325240998564001  4.0516965230772799  3.6190838639841596
  0.5623852065271200  9.2454958288683198  1.4107139259328798
  7.9435946238197594  3.5189226801689597  0.9139786602269598
  7.3753947649213600  7.3531457319942390  9.4217712526735991
  4.3278110834047991  4.4185158153595996  8.7333985207500806
  9.0239621814639204  0.9006677111864800  1.1382264156132800
