edited
1.0
  15.0000000000000000    0.0000000000000000    0.0000000000000000
   0.0000000000000000   15.0000000000000000    0.0000000000000000
   0.0000000000000000    0.0000000000000000   15.0000000000000000
O C
1 1
direct
   0.5000000000029333    0.4999999999952922    0.5018833280509964 O
   0.4999999999970667    0.5000000000338115    0.6781166719490033 C
