chf_slab_melt_475
 1.0000000000000000
    11.0399999999999991    0.0000000000000000    0.0000000000000000
     0.0000000000000000   11.0399999999999991    0.0000000000000000
     0.0000000000000000    0.0000000000000000   16.3599999999999994
 C   F   H  
  97  38   9
Cartesian
  7.1211900000000004  7.1356000000000002  8.7872500000000002
  6.6150000000000002  5.1922600000000001 14.2567199999999996
  3.4184399999999999  9.5109700000000004  1.7026699999999999
  5.6831899999999997  3.0811899999999999  3.2497600000000002
  9.3120899999999995  1.3675700000000000  1.4299400000000000
 11.0082500000000003  1.1437299999999999  0.9500800000000000
  5.2155600000000000  6.3315200000000003  3.9062000000000001
  4.3117500000000000 10.0489700000000006  6.8465600000000002
 10.6011500000000005  8.2638599999999993 16.3296999999999990
  3.2491099999999999  4.5340299999999996 15.9936699999999998
  5.9336799999999998  2.9831300000000001  5.8081300000000002
  7.0862400000000001  2.9882499999999999  2.8852199999999999
  3.4924100000000000  1.2392799999999999  9.6840899999999994
  0.2291700000000000 10.7806899999999999  0.4391000000000000
  4.2279600000000004  8.3589800000000007  4.4950400000000004
  8.6228200000000008  4.3542600000000000  1.9540200000000001
  7.9443799999999998  6.0629600000000003  8.9615899999999993
  4.7787300000000004  2.1766999999999999 11.1256199999999996
  7.1434899999999999  0.9564700000000000  4.4954700000000001
  5.6678699999999997  5.2208500000000004 15.4051700000000000
  6.6566400000000003  6.2496000000000000  3.9568800000000000
  3.2204999999999999  4.3376400000000004  6.8782800000000002
  4.5269399999999997  4.9829699999999999  4.1848200000000002
  2.7180700000000000  3.2124400000000000  7.3044399999999996
  4.1832799999999999  7.5926999999999998  0.6549000000000000
  3.7266599999999999 10.4502199999999998  3.4785300000000001
  0.8466600000000000  9.7754499999999993  2.9327800000000002
  3.5316500000000000  8.3494499999999992 16.1202900000000007
  5.9692699999999999  9.9879499999999997  4.9298599999999997
  4.0941900000000002  8.4629700000000003  8.4291400000000003
  7.0489100000000002  8.3513000000000002  9.1321700000000003
  2.8534600000000001  3.5664799999999999 14.9903800000000000
  4.0960900000000002  7.2461700000000002  8.9906100000000002
  2.2507899999999998  5.4037800000000002  4.8195800000000002
  7.0451499999999996  9.3656299999999995  8.3667300000000004
  3.5578200000000000  2.0958399999999999  7.5327400000000004
  4.3418200000000002  2.3792900000000001  6.3502500000000000
  3.6437100000000000  7.6055000000000001  3.2645700000000000
  8.6240900000000007  4.9104999999999999  9.0981299999999994
  0.1771100000000000  6.9826300000000003 14.6922400000000000
  3.4881099999999998  6.1133499999999996 11.3772400000000005
  4.8944799999999997  9.6780899999999992  3.9792600000000000
 10.2859800000000003  1.9941500000000001 10.6369100000000003
  9.0284999999999993  5.6265099999999997  1.4949500000000000
  3.6020400000000001  5.1772700000000000  7.9389700000000003
  4.0618800000000004  7.8775700000000004  5.7203400000000002
  3.4858500000000001  5.3150399999999998  5.6873899999999997
  6.9180099999999998  1.4129799999999999 12.1186600000000002
  5.7777399999999997  1.7033199999999999 11.8321400000000008
  3.7947400000000000 10.9655000000000005  9.1509599999999995
  2.3032300000000001  6.1433700000000000 13.4116900000000001
  6.9006100000000004  7.6633199999999997  3.4296199999999999
  7.2409600000000003 10.5811499999999992  4.3454600000000001
  2.4408400000000001  6.1316600000000001  3.4226999999999999
  8.7688900000000007  2.8379500000000002  1.1209400000000000
  3.1446000000000001  6.4233500000000001  9.9379700000000000
  4.0821600000000000  2.4203399999999999 10.1623599999999996
  3.8476499999999998  5.9228800000000001 13.8946500000000004
  4.0130299999999997  5.8996599999999999 12.5714299999999994
  2.3822500000000000  0.2518800000000000  9.8005800000000001
  2.7147700000000001  7.9483899999999998 15.1917700000000000
  9.8601399999999995  4.7852100000000002 10.9709800000000008
  3.4041100000000002  5.1264599999999998  1.9762100000000000
  8.8736200000000007  4.2892000000000001 10.3259600000000002
  1.3585499999999999  1.8346700000000000 13.6796399999999991
  6.7512200000000000  1.2223299999999999 13.5374400000000001
  1.7404599999999999  2.7574200000000002 14.7334999999999994
  3.0802800000000001  5.0738200000000004  9.1099800000000002
  0.1408100000000000  1.9863900000000001 11.5605200000000004
  1.4291700000000001  3.9999199999999999  9.7159399999999998
 10.4908199999999994  6.5502000000000002 15.8142499999999995
  4.5086100000000000  4.9886900000000001 14.7187500000000000
  9.3092500000000005  1.5644899999999999  8.3218999999999994
  1.0068699999999999  9.8695199999999996  1.3775999999999999
  8.3966999999999992  1.5330200000000000  7.3653300000000002
  3.8785200000000000  4.3699100000000000  3.0034299999999998
  6.9705500000000002  1.1413899999999999  7.0756800000000002
  5.6758800000000003  3.9796600000000000  4.4616400000000001
  5.6974000000000000 10.1037400000000002  6.3415499999999998
  4.3745599999999998  6.4076800000000000  7.7184299999999997
  1.0261199999999999  1.5417200000000000 12.4914600000000000
  7.5499299999999998  1.6074999999999999  3.2161499999999998
  2.9870899999999998  3.5071800000000000  9.5585799999999992
  4.2448699999999997  8.7775900000000000  6.9260799999999998
  6.6872100000000003  1.6460900000000001  5.7270899999999996
  3.7739900000000000  8.2414000000000005  1.9747600000000001
  4.2125800000000000  9.7877299999999998  8.5000900000000001
  9.3998699999999999  1.4534000000000000  9.6603600000000007
  2.4629900000000000 10.0879300000000001  0.7304900000000000
  3.7337500000000001  6.6279399999999997  6.4034599999999999
  6.6195100000000000 10.7088099999999997  7.5490599999999999
  0.2047600000000000  4.2481499999999999 10.2768700000000006
  7.1631299999999998  8.9087800000000001  3.7409400000000002
  6.9888199999999996  4.7860500000000004  4.3842200000000000
  1.6536200000000001  7.2242300000000004 14.5717700000000008
  3.3360099999999999  5.2278799999999999  0.7063600000000000
  7.8512599999999999  4.1793500000000003  3.3974400000000000
  0.4407900000000000  4.1519599999999999 14.6245999999999992
  1.5060199999999999  6.1375799999999998  6.5829300000000002
  5.6822100000000004  5.7779400000000001  0.0567100000000000
  5.7374099999999997  9.8918900000000001  2.1391300000000002
  8.1466700000000003  3.5610499999999998 15.2726600000000001
  1.7793300000000001  5.4260000000000002 12.5449300000000008
  1.0948000000000000  8.8994700000000009 15.5359400000000001
  3.2402899999999999 10.9390400000000003  6.2641200000000001
  1.6492100000000001  1.8733500000000001  4.7330699999999997
  3.3268300000000002  3.2165499999999998  3.6225299999999998
  1.4473199999999999 10.8478600000000007  3.5458699999999999
 10.5117700000000003  5.7323100000000000  4.8244999999999996
  2.7312500000000002  0.4448000000000000  0.7500400000000000
  9.7195000000000000  8.9216899999999999 15.7726500000000005
  9.6016899999999996 10.9724699999999995  9.9173399999999994
  4.7324000000000002  9.1400799999999993 11.0368600000000008
  6.4413299999999998  1.8281300000000000 14.4957300000000000
  1.6287900000000000  8.7805999999999997  3.5571400000000000
  1.1920400000000000  0.4548700000000000  8.5566999999999993
  3.3954100000000000  0.6508600000000000  3.9836800000000001
  0.3083700000000000  4.8346200000000001  3.0717699999999999
  6.2376300000000002 10.4876000000000005 13.2425400000000000
 10.6193899999999992  9.8055800000000009  3.6296200000000001
  7.8138199999999998  4.7416799999999997  5.6866599999999998
  1.6373899999999999  4.2247500000000002  4.5087400000000004
  6.6088800000000001  3.7104599999999999 11.3254599999999996
  4.1719400000000002  8.7503399999999996 13.7088199999999993
  8.8092299999999994  8.8953799999999994  4.5536399999999997
 10.8555200000000003  2.8263099999999999  4.3063000000000002
  8.9675700000000003  0.6051000000000000  0.1708000000000000
 10.3765800000000006  5.4526100000000000  0.8913500000000000
  9.0277999999999992  3.9468600000000000  4.2016200000000001
  8.3951399999999996  0.3619500000000000 14.3872300000000006
  7.7344499999999998  5.8721500000000004 14.3485300000000002
  9.4089100000000006  0.7434200000000000  4.5896100000000004
  1.2030700000000001  6.7055199999999999  3.2852100000000002
  8.3010699999999993  6.8217299999999996  1.9271700000000000
  5.1530100000000001  1.7990800000000000  3.5140500000000001
  6.6939099999999998  0.9904400000000000  2.6909100000000001
 10.5171700000000001  1.8888799999999999  4.2774000000000001
  7.9666100000000002  7.7206400000000004  3.4651100000000001
  0.0494900000000000  4.0850299999999997  3.6362000000000001
  0.0797600000000000  5.3507699999999998  4.1577799999999998
  0.9762400000000000  7.6232899999999999 11.4423100000000009
  3.7766999999999999  7.6541600000000001 13.7037700000000005
  8.6452500000000008  1.5429600000000001  3.1128900000000002
  9.2523599999999995  0.1913000000000000  3.4596900000000002
