Si O  C  H  F 
 1.0000000000000000
    10.3545250000000006    0.0000000000000000    0.0000000000000000
     0.0000000000000000   10.3545250000000006    0.0000000000000000
     0.0000000000000000    0.0000000000000000   10.3545250000000006
 Si  O   C   H   F  
   8  64   8   8   8
Cartesian
  0.3782600000000000  7.9950999999999999  2.0118600000000000
  7.3792499999999999  8.3844499999999993  3.9537399999999998
  3.1232899999999999  6.4674899999999997  5.6068300000000004
  3.1768100000000001  7.7482199999999999  1.4334499999999999
  3.3267000000000002  0.5998800000000000  1.0382800000000001
  4.6301800000000002  9.1457599999999992  5.3282299999999996
  9.6162100000000006  0.2930500000000000  0.9810000000000000
 10.2562599999999993  8.8684499999999993  4.7756400000000001
  7.5175599999999996 10.2109199999999998  8.2311300000000003
  1.5698500000000000  1.5111500000000000  7.1880600000000001
  8.5765600000000006  8.8018500000000000  4.9105299999999996
  8.2767499999999998  9.7977600000000002  0.5036800000000000
  6.4262800000000002  2.8625500000000001  5.4796800000000001
  0.6592500000000000  2.7766299999999999  3.4813700000000001
  3.6772600000000000  5.0195699999999999  1.4772900000000000
  7.6008699999999996  6.5881200000000000  9.4280399999999993
  6.0151800000000000  8.5739199999999993  4.8500800000000002
  1.2016300000000000  6.1751100000000001  9.2652599999999996
  0.4246000000000000  8.5006199999999996  9.4091500000000003
  2.2654299999999998  0.8791400000000000  6.3115699999999997
  0.3849300000000000  7.7876399999999997  3.6978300000000002
  7.6087199999999999  5.5075900000000004  6.0854600000000003
  6.1321199999999996  2.7818299999999998  8.1950699999999994
  3.8033299999999999 10.0863499999999995  4.3024899999999997
  8.9574300000000004  2.6284000000000001  7.1095100000000002
  3.9202599999999999  2.1837499999999999  6.7773199999999996
  6.6889500000000002  4.5930999999999997  2.0608700000000000
  7.1378300000000001  0.9175900000000000  5.3290499999999996
  7.3705100000000003  6.8326700000000002  3.5309800000000000
  9.3037700000000001  6.2330699999999997  6.4247800000000002
  2.5867000000000000  8.9414200000000008  8.4601500000000005
  6.2999599999999996  5.4906300000000003  1.1503800000000000
  7.3963200000000002  4.8198900000000000  7.1381699999999997
  3.4621900000000001  3.8180700000000001  1.9297000000000000
  8.3242999999999991  7.4079899999999999  8.6829400000000003
  7.4132699999999998  3.2453200000000000  4.7469400000000004
  6.3510600000000004  6.2338899999999997  8.1437600000000003
  3.6069499999999999  7.9652799999999999  5.7032800000000003
  6.7983599999999997  2.1188799999999999  3.2027399999999999
  3.8192699999999999  7.1184500000000002  0.0234400000000000
  5.1325900000000004  8.5486500000000003  8.4641199999999994
  9.5494199999999996 10.1350800000000003  7.0464099999999998
 10.2219800000000003  1.0267599999999999  9.9831900000000005
 10.0097600000000000  2.6749399999999999  4.3292000000000002
  9.6139600000000005  4.8175200000000000  3.7683499999999999
  9.2026100000000000  4.4109600000000002  0.1590500000000000
  3.3262200000000002  9.3850599999999993  1.1821600000000001
  5.3449700000000000  3.3675099999999998  0.7034200000000000
  7.5411999999999999  9.4110600000000009  2.6772600000000000
  4.9840499999999999  0.5191300000000000  8.8475500000000000
  0.3113500000000000  4.6889900000000004  3.0623399999999998
  3.2952300000000001  4.9989900000000000  8.6487599999999993
  3.1882600000000001  2.7584700000000000  7.6769299999999996
  1.6026600000000000  7.2680499999999997  1.4021900000000000
  5.1515500000000003  4.4930800000000000  0.2232400000000000
  1.9499800000000000  3.2699600000000002  6.0174200000000004
  9.2919499999999999  7.2202200000000003  1.5477399999999999
  6.6024399999999996  7.1924200000000003  7.2586300000000001
  0.4698800000000000  3.6342300000000001  8.0543700000000005
  9.4284400000000002  6.0222300000000004  7.7023000000000001
  5.3872900000000001  4.7977900000000000  3.3171800000000000
  0.3603100000000000  9.5754400000000004  1.6098200000000000
  7.6497400000000004  2.0722900000000002  9.9146500000000000
  5.8139900000000004  1.6245499999999999  3.9352299999999998
  8.1788399999999992  1.4336199999999999  4.6867200000000002
  6.2577499999999997  8.8361099999999997  0.8897500000000000
  4.0279600000000002  7.4538000000000002  2.7644299999999999
  4.5830700000000002  3.7583700000000002  3.4577000000000000
  2.6753900000000002  2.6114000000000002  5.2263400000000004
  4.8803900000000002 10.0126200000000001  6.7304500000000003
  1.1097900000000001  3.4690400000000001  0.5744700000000000
  2.7809499999999998  1.1550000000000000  9.9855199999999993
  8.5428200000000007 10.2954699999999999  7.6345599999999996
  7.3093700000000004  9.3338699999999992  1.3431999999999999
  9.9405999999999999  3.1189800000000001  7.5168400000000002
  5.0139500000000004  9.8418500000000009  8.0761599999999998
  1.4849200000000000  8.6794399999999996  8.8587100000000003
  2.1738300000000002  5.4911799999999999  8.8971900000000002
  6.8504800000000001  2.5028000000000001  9.1210100000000001
 10.3351699999999997  3.8704299999999998  0.2646400000000000
  3.4914999999999998  7.5553400000000002  9.5724599999999995
  5.3763100000000001  8.5664999999999996  9.3973499999999994
  9.2924500000000005  6.9202100000000000  0.6320700000000000
  8.0824200000000008  6.3859700000000004  2.9060299999999999
  3.4938600000000002  1.0097200000000000  9.2122100000000007
  4.6401500000000002  6.6636499999999996  2.7391800000000002
  4.2332099999999997  0.3470600000000000  3.6476500000000001
  0.9513500000000000  1.1973600000000000 10.0221699999999991
  1.8408000000000000  6.3899600000000003  6.5969300000000004
  0.2520700000000000  0.1070700000000000  4.5855800000000002
  9.3299000000000003  1.4720800000000001  2.0148600000000001
  2.4148000000000001  1.3994200000000001  2.1190799999999999
  4.3122199999999999  5.3777699999999999  5.9963100000000003
  4.8407600000000004  1.0200199999999999  1.5729700000000000
  2.7175199999999999  5.9048600000000002  4.1058599999999998
  0.6343000000000000  8.3923199999999998  6.1157599999999999
