C  F 
 1.0000000000000000
    11.3878235730000004    0.0000000000000000    0.0000000000000000
     0.0000000000000000   11.3878235730000004    0.0000000000000000
     0.0000000000000000    0.0000000000000000    7.5918823819999997
 C   F  
 120  24
Cartesian
 10.1268100000000008  0.9480300000000000  0.3547100000000000
  4.9315699999999998  7.5483000000000002  2.9667500000000002
  7.8216500000000000  5.7250399999999999  4.9589100000000004
 10.0964200000000002  9.6506299999999996  5.6150000000000002
  6.2398600000000002  9.1729900000000004  1.5236600000000000
  7.9870500000000000  2.3314499999999998  6.2603999999999997
  6.0573699999999997  1.0479700000000001  5.3351400000000000
 11.0277700000000003 10.3896300000000004  3.3512300000000002
  1.3508300000000000  2.5385100000000000  1.9016500000000001
  8.7552900000000005  8.1907800000000002  0.8752200000000000
 11.0813799999999993  0.4953200000000000  5.3459000000000003
  3.9399799999999998  0.0513300000000000  0.9016900000000000
  0.7963200000000000  3.2553299999999998  4.5919499999999998
 10.8596000000000004 10.1438299999999995  0.9872400000000000
  7.2991599999999996  2.4369100000000001  3.3040400000000001
  9.4802000000000000  5.6572899999999997  1.2926299999999999
  2.7040600000000001 11.1648899999999998  4.5199900000000000
  6.6180599999999998  8.4721799999999998  5.3400600000000003
  2.4064199999999998  5.0870899999999999  6.7739799999999999
  6.4282500000000002  6.0790100000000002  4.3287000000000004
  0.9661600000000000 10.2781900000000004  2.7511199999999998
  7.4833600000000002  8.3083500000000008  1.7535400000000001
  0.1923600000000000  8.3278099999999995  6.9662899999999999
  2.4245399999999999  2.0802399999999999  2.9768300000000001
  2.5803400000000001  8.7375100000000003  1.0918500000000000
  6.8936599999999997 10.7374100000000006  7.2732900000000003
  4.1075299999999997  0.0816400000000000  2.4156499999999999
 10.1093700000000002  5.3408300000000004  2.4139900000000001
  6.0610299999999997  4.2883800000000001  7.1573599999999997
  2.6701899999999998  5.6930899999999998  2.0780300000000000
  9.9738199999999999 11.2788199999999996  2.6430899999999999
  0.6801000000000000  0.1164500000000000  6.5075099999999999
  8.8461900000000000  3.4112399999999998  5.6048000000000000
  1.5348100000000000  7.6325900000000004  6.5217099999999997
 10.3928799999999999  8.3809600000000000  6.1024900000000004
  8.8675599999999992  2.2707899999999999  3.3166300000000000
  8.7968799999999998 10.4893999999999998  2.1344699999999999
  5.9789500000000002  2.8568199999999999  7.2885799999999996
 10.8675599999999992  4.1991199999999997  2.7918400000000001
  9.1801600000000008  0.4251900000000000  7.2152599999999998
  6.5092400000000001  2.3477700000000001  6.0129000000000001
  4.7876000000000003  8.7907799999999998  2.1095199999999998
  8.5148600000000005 10.4399499999999996  7.3251400000000002
  8.9234299999999998  7.3425200000000004  3.5466600000000001
  9.0309600000000003  6.6297699999999997  4.9612400000000001
  1.6698599999999999  0.0042900000000000  2.1242100000000002
  7.5591200000000001  7.7033399999999999  2.9726800000000000
  4.5528000000000004  1.2935399999999999  5.1713699999999996
  8.2277600000000000  7.7746300000000002  7.1758300000000004
  4.3010400000000004 10.0372599999999998  2.9897000000000000
  0.7382000000000000  1.0293600000000001  1.4986500000000000
 11.0565800000000003 10.4657099999999996  4.8457699999999999
  3.8765399999999999  9.0016300000000005  0.9679500000000000
  0.6353900000000000  6.1497500000000000  0.3839700000000000
  3.8630200000000001  1.4478200000000001  0.3310800000000000
  2.4251600000000000  9.8438999999999997  6.4015899999999997
  1.5146400000000000  0.7531600000000001  0.0798000000000000
  1.9477800000000001  8.0946400000000001  2.2602099999999998
  9.6903199999999998  2.7474500000000002  4.5891000000000002
  2.0198700000000001  2.9379499999999998  0.5876800000000000
  7.9487100000000002  4.3770400000000000  4.9011500000000003
  7.7606900000000003 10.6169499999999992  2.9312000000000000
  5.5981199999999998  8.5318500000000004  6.5315700000000003
  2.7514599999999998  0.5184900000000000  3.1413099999999998
  9.2731499999999993  9.6560400000000008  0.8240800000000000
  9.7947199999999999  1.2641899999999999  4.9855499999999999
  2.1592500000000001  2.9811500000000000  4.1983400000000000
  7.9611099999999997  0.1850400000000000  3.9340299999999999
  1.7786700000000000  6.3498200000000002  6.9887800000000002
 10.9216200000000008  3.4282900000000001  3.9596499999999999
  3.7048899999999998  7.1670600000000002  4.0090300000000001
  3.1703600000000001  9.7155500000000004  3.8628100000000001
  5.9088799999999999  9.6669099999999997  0.0914900000000000
  1.0851700000000000  6.5284500000000003  3.6399900000000001
  8.7053499999999993  0.9492900000000000  5.9814699999999998
  0.4285800000000000  8.0374900000000000  1.9960199999999999
  9.0878399999999999  7.6490499999999999  6.0256299999999996
  4.5820900000000000  9.2192600000000002  5.6244300000000003
  1.9220800000000000  9.1709599999999991  3.2695099999999999
  0.0406600000000000  7.1471900000000002  3.0522600000000000
  9.2965400000000002  0.8526899999999999  3.6777600000000001
  2.4020100000000002  6.8001300000000002  3.0296200000000000
  6.5936300000000001 11.1480499999999996  5.8022000000000000
  5.3188800000000001  5.6625399999999999  5.1642099999999997
  4.4493900000000002  2.6962899999999999  4.8936000000000002
  3.7516799999999999  0.2105400000000000  5.3897000000000004
  5.7614900000000002  3.3481700000000001  5.1549600000000000
  9.7927300000000006  7.1104799999999999  1.2373300000000000
  6.4847500000000000  4.8948700000000001  3.3002400000000001
  2.3459099999999999 11.0933100000000007  0.7714200000000000
  3.1956099999999998  4.8301400000000001  5.7134600000000004
 10.7960100000000008  0.2885400000000000  1.3935900000000001
  7.9596799999999996  8.6246799999999997  5.8893899999999997
  1.9654900000000000  4.2585199999999999  0.2320600000000000
 10.0567700000000002  6.7708399999999997  2.7229399999999999
  0.6566600000000000  3.9654199999999999  2.0908799999999998
  8.6329799999999999  9.9540199999999999  5.8700700000000001
  6.4594699999999996 10.3532399999999996  2.5245799999999998
  1.3662600000000000  5.0294400000000001  1.3567600000000000
  2.5785700000000000  1.8173200000000000  0.0073900000000000
  6.6736500000000003  1.1399500000000000  3.8434200000000001
 11.3575300000000006  9.4323399999999999  2.1506799999999999
  3.8572199999999999 10.3739699999999999  6.3525999999999998
  3.4898099999999999  8.4579100000000000  4.8890099999999999
  7.9443200000000003 11.1516999999999999  5.3141100000000003
  5.8306300000000002  9.9181200000000000  5.0786499999999997
  5.5510599999999997 10.3535699999999995  3.6947000000000001
  4.0311599999999999  6.0027900000000001  5.0020499999999997
  5.5796500000000000  0.3053200000000000  3.0303300000000002
  5.6536999999999997  4.5470800000000002  5.9632399999999999
  6.3778300000000003  7.5715000000000003  3.8768199999999999
  2.4194900000000001  8.4671199999999995  5.8766900000000000
  6.8764599999999998  3.7111000000000001  4.0955100000000000
  1.8903600000000000  9.7769300000000001  0.2331100000000000
  4.8421900000000004  2.4755199999999999  0.2904100000000000
  0.4067300000000000  9.8656400000000009  7.4827599999999999
  3.2408600000000001  3.4582999999999999  4.9528200000000000
  1.5217700000000001 10.7114100000000008  5.4998800000000001
 11.2753599999999992  7.4121300000000003  0.6800300000000000
  4.4807199999999998 10.1930499999999995  0.1306600000000000
  8.1308600000000002  2.6071900000000001  0.0906800000000000
 10.1981099999999998  5.7986899999999997  4.9709399999999997
  6.7352999999999996  0.4410200000000000  0.4887600000000000
  5.1412100000000001  7.3838999999999997  7.2141999999999999
  8.8213600000000003  5.0463699999999996  0.2986500000000000
  0.6167400000000000  1.1480800000000000  4.4870299999999999
  3.8669799999999999  2.4858099999999999  2.6457500000000000
  9.3935600000000008  8.7277900000000006  3.5679699999999999
  0.5352500000000000  3.0201199999999999  5.9511700000000003
  5.2943199999999999  6.5891500000000001  2.0040300000000002
 10.5890599999999999  2.1774000000000000  7.5826599999999997
 11.2047799999999995  5.3120099999999999  7.2489699999999999
  9.2286099999999998  2.7367200000000000  2.0806100000000001
  4.3132599999999996  3.6407099999999999  0.8310999999999999
  1.0862499999999999  8.7757500000000004  4.3426299999999998
  3.4459800000000000  6.2239699999999996  1.0591900000000001
  7.4976900000000004  5.0729199999999999  2.4193500000000001
  9.7648299999999999  3.9610099999999999  6.4008500000000002
  3.3645499999999999  4.7061400000000004  2.8159000000000001
  7.3825000000000003  6.7037599999999999  7.3050499999999996
  6.8562500000000002  2.7033200000000002  1.9085300000000001
  6.1224800000000004  5.1237599999999999  0.5778400000000000
  5.3693499999999998  4.5328200000000001  2.7333799999999999
  1.1289499999999999  5.6413399999999996  4.6541300000000003
