 C  F 
 1.0000000000000000
    15.0000000000000000    0.0000000000000000    0.0000000000000000
     0.0000000000000000   15.0000000000000000    0.0000000000000000
     0.0000000000000000    0.0000000000000000   15.0000000000000000
 C   F  
   1   4
Selective dynamics
Cartesian
  7.5000000000000000  7.5000000000000000  7.5000000000000000   F   F   F
  7.0690799999999996  8.5267999999999997  8.2246799999999993   T   T   T
  8.2147699999999997  6.6509999999999998  8.3222500000000004   T   T   T
  6.5261399999999998  6.9069700000000003  6.8172600000000001   T   T   T
  8.3885699999999996  8.0218799999999995  6.5972099999999996   T   T   T
