Si  O  C  H  F 
 1.0000000000000000
    12.8159820000000000    0.0000000000000000    0.0000000000000000
     0.0000000000000000   12.8159820000000000    0.0000000000000000
     0.0000000000000000    0.0000000000000000   12.8159820000000000
 Si  O   C   H   F  
  21  42  14   7   7
Cartesian
  0.2233871800135200  5.3000667858355195  0.0031651630745400
  6.4883110660707608  9.1038007737450002  8.5266659614487406
  7.8942933696137407  4.1438419550290799  2.1241873716265798
  5.7418220228318999  6.5141295026088599  7.1152249466924999
  2.7232344373071600  5.8572487802354400  6.5328336593789391
  7.3432316474179204  1.6493128176261600  3.8100194581215603
  6.4780750694071809  1.1679511980168000 10.8063795039193806
  5.9526231395625002  4.0048991522537403  8.8831312227145798
 11.4300873384840003  4.7947760617544999 10.1775359208878999
  4.2083581210563601  3.7225044997560000  4.9448619763993804
  5.7706346572446598  1.7779419588870000  6.5055834213317993
  2.4246129573599400  6.3139224610789197 10.8963439809246001
  7.5850434676340992 11.7616155182938797 12.6163338634450799
  3.8806011721098002  1.0678382575050600 12.7449741546102597
  2.2502898420361199  8.3549528208592196  4.5506955564046798
  8.4420809928880214 11.5279217255559594  2.9189630620870202
  6.8140905089947204 12.3643565344663191  8.1480220025327998
  5.1053963766893995  2.7294815877330603  2.2867124784006601
  0.9284750905201199  6.3725719831858800  8.9824372689996004
  2.8426581150170400  9.4433816195249403 10.6746162142604408
  4.6804983852970805 10.8308741776766997  0.1707528390582600
  7.7191242713181003  3.6397040285289601 11.0978647887693604
  9.0806182002248406  8.0752291471701003 12.0703013889056994
 -0.2220085648297800  6.4759983676838999  1.0159410918344400
 13.8578045830039809 -1.0580667120291600  4.6167027337778395
  9.8323738431067795  5.2796152980795599 10.0935980312583613
  7.3582249365999006  8.8762480151020196  3.5386570592490596
  4.1610492051015600  6.2537523227076601  7.2692852255154001
  2.3334266046308398  1.3696316929972800 12.2083859053664998
 -0.5294876825764800  5.7561042813325205  9.1556257854369587
 11.9278518771355202  5.0798604043945801 11.7011550979303198
  5.8166624876387401  0.2050977484209600  6.9248363571325795
  6.2556911244646196  8.1042650359893003  7.2008135348036397
  8.1601645046787006  0.3137329324832400  3.4277235851347201
  4.4068565358660594  2.2993912012334401  5.7897035568624595
  2.6231777589564000  7.8869550664803594 11.2691798649579589
 12.4963926763820403 13.3974350292713389  6.7949591955445801
  2.9364512384849397  4.5042422354082001  5.6053004153760000
  4.9500993556035002  1.2329406582593399 11.4024498014608202
  5.6646604555250395  4.6376440483658401  5.0800317540739197
 12.6275566907226597 10.5522128207355603 -2.5658941642110000
  6.3996553571473802  5.5005835896504003  8.2595405262254395
  3.6460235892531596 10.2237512490986404 11.9125252442617207
  5.9074965290226595  1.4437644592780798  3.0555914266729802
  8.2475887258916991  2.9372080222220398  3.1674646967473801
  7.0688321171310600  1.7990224550395200  5.3861303342395797
  6.4575538627091396  0.1753020000289800  9.5630372665090206
  6.7068562399248597 10.7053811072112595  8.0396374990784398
  4.1261575659467393  3.4572897992890796  3.3238631233263600
  4.1720936339097001  2.1108660554563201  1.1029792956695998
  4.1969522815558200 12.3449950459794593  0.6207501622386600
  7.9094310949128595 11.5489104592773604  1.3426736593397399
  7.4496590222610601  0.5723811082528201 12.0247480061652610
 -0.2320917949879200  2.0369386012071597  3.8210467135138200
  2.3906069025613199  6.9810070120010996  5.4103697136354603
  1.7082678727439999  5.4818659760992201 12.0890928225131997
  6.3494490039820199  3.6725108918918399  1.5831231406693200
 11.1675934709956799 12.7720434309915607 13.1190337086049791
 10.9446548503521601  9.9924755758444803 -5.6390390006302802
  1.5696454695186601  5.6177192300938206  7.6183156793034001
 -2.9860189712672400  5.6224429447393796  4.2802447583318406
  6.0676578560766599  2.9100535195604400  7.5948070672011605
  6.1939493622206996 10.9117141881372000 12.3197251334709605
 11.3924853754558200  0.7310263046362200  6.3354151192125601
 14.8723368139371601 -0.6601091963990400  3.9936395431078200
  6.1745398138013403  5.8455834170993999  5.4440945857890002
  9.4207598733770990  8.2707067068625797 13.1444248603032001
  7.0982174977793999  7.7729196120827400  3.9590110160634602
  0.1082381449399200  3.1264007525015400  4.0546093987558800
 -2.2467363547069801 19.2465962840656779  4.5255411158939998
  4.2781446033615005  4.5296374882206596  9.4717938826600196
  4.0249633410336596  5.3697718866549602 10.4944356825233402
 10.0236764685029396  9.3542632536513608  6.6799065366556203
  6.9172045680113996  3.1154453947683001 10.2646915191181787
 13.4430960662605798  9.9773696341807199 -1.9684826741532599
 12.3881815731641396 12.4688711239959602 13.0065589844953191
  6.7297941563486399  6.6266483136965997  4.4503154026682399
  1.6404505660731599  1.8124411726729801 12.7840162495357799
 11.6650608070246200  3.3764464566732602 10.0110367062554406
  5.3732510412884995  9.0205173963161993  9.5046070258540798
 13.1799746001337201  7.2056714327807398  1.2670275819043799
  3.4555777122537004  4.2126395561631007  8.7645076467609595
  4.9792130374334400  5.5911892502350797 11.0717854188377398
  9.1611496018387797  4.8375379954555200 10.7060788092713395
  1.6714597316409001  7.9027389735919193  3.0466089612088201
  0.2256508669141800  3.9127143063670200  0.8272331901539999
  7.9367261888969995  8.7317743471347598  9.1231306067563196
  4.6774435678275603 10.0311977838592803  1.6587365373505800
  8.7621038811770404 11.0369094151809595 11.8436594621034601
  8.2884817049376593 12.8764880452594799  7.8117980469181205
  0.7671563521317000  7.9681323935871005  8.5897281543181201
