 F  O Si  H 
 1.0000000000000000
     9.9854713620000002    0.0000000000000000    0.0000000000000000
    -4.9927356810000001    8.6476718679999998    0.0000000000000000
     0.0000000000000000    0.0000000000000000   27.4653860129999998
 F   O   Si  H  
  17  40  24   1
Selective dynamics
Cartesian
  2.2678400000000001  4.3695399999999998 25.8855399999999989   T   T   T
 -1.9323399999999999  6.2492700000000001 13.9357100000000003   T   T   T
  5.2956500000000002  1.7177400000000000  3.0179299999999998   F   F   F
  5.5731099999999998  1.7160000000000000 13.9130400000000005   T   T   T
 -2.1934600000000000  6.0415799999999997  3.0179299999999998   F   F   F
  0.3029100000000000  1.7177400000000000  3.0179299999999998   F   F   F
  0.4151900000000000  1.9548000000000001 13.8669600000000006   T   T   T
  5.4234900000000001  6.9523799999999998 13.1841600000000003   T   T   T
  2.9599700000000002  6.3717400000000000 13.9094700000000007   T   T   T
  7.8044000000000002  2.7397700000000000 13.1322299999999998   T   T   T
  2.7992800000000000  6.0415799999999997  3.0179299999999998   F   F   F
  0.3381400000000000  7.0351600000000003 13.2122799999999998   T   T   T
  2.8561999999999999  2.5607099999999998 13.2150900000000000   T   T   T
  3.0052200000000000  2.5282499999999999  2.2112900000000000   F   F   F
  0.5088500000000000  6.8520899999999996  2.2112900000000000   F   F   F
  7.9979600000000000  2.5282499999999999  2.2112900000000000   F   F   F
  5.5015900000000002  6.8520899999999996  2.2112900000000000   F   F   F
  8.1086799999999997  0.7008900000000000  4.0979799999999997   T   T   T
 -1.1595500000000001  5.5261899999999997 11.5737600000000000   T   T   T
  6.3809300000000002  1.2461400000000000 11.4415800000000001   T   T   T
  5.6704100000000004  5.0525099999999998  4.1548699999999998   T   T   T
  1.3703300000000000  1.1174999999999999 11.6337100000000007   T   T   T
  1.3386499999999999  1.1035299999999999  6.0476599999999996   T   T   T
 -3.6446800000000001  7.6515000000000004  4.4930000000000003   T   T   T
  3.9280300000000001  3.1237599999999999  4.7020900000000001   T   T   T
  0.5318800000000000  5.1127099999999999  4.1272700000000002   T   T   T
  1.2803100000000001  7.4944899999999999  4.6514400000000000   T   T   T
  0.5186500000000001  3.6013700000000002  6.5179000000000000   T   T   T
 -1.6021399999999999  8.0321700000000007  6.3035500000000004   T   T   T
  5.8020899999999997  3.6429999999999998  6.4130599999999998   T   T   T
  3.2651200000000000  8.0653900000000007  6.4326699999999999   T   T   T
 -1.1570700000000000  3.2663300000000000  4.5201099999999999   T   T   T
  3.1146600000000002  0.7673600000000000  4.0975700000000002   T   T   T
  4.0406899999999997  5.6688000000000001 11.4518699999999995   T   T   T
  8.2895000000000003  0.7353600000000000  9.7331099999999999   T   T   T
  5.7637499999999999  5.0849799999999998  9.6718100000000007   T   T   T
 -1.2232400000000001  5.3808900000000000  6.0983700000000001   T   T   T
  6.3015299999999996  1.0838200000000000  5.9819100000000001   T   T   T
  4.1160300000000003  5.5704000000000002  6.0288100000000000   T   T   T
  2.6938399999999998  2.3596100000000000  7.7783300000000004   T   T   T
  0.1268700000000000  6.9010600000000002  7.8657000000000004   T   T   T
  7.6279899999999996  2.4963000000000002  7.8795400000000004   T   T   T
  0.2192400000000000  1.8086500000000001  8.3272600000000008   T   T   T
 -2.3567300000000002  6.2485999999999997  8.2417300000000004   T   T   T
  5.1762800000000002  1.7727900000000001  8.2096400000000003   T   T   T
  2.5879900000000000  6.3945600000000002  8.2265700000000006   T   T   T
  5.1292600000000004  7.0469900000000001  7.9862099999999998   T   T   T
 -3.6904300000000001  7.5424800000000003 10.2315000000000005   T   T   T
 -1.2007099999999999  3.2809800000000000 10.0923599999999993   T   T   T
  3.0926200000000001  0.7818900000000000  9.6931300000000000   T   T   T
  3.2138700000000000  8.0238800000000001 11.9684399999999993   T   T   T
  5.5782400000000001  3.6830900000000000 12.1735900000000008   T   T   T
 -1.6834600000000000  8.0608599999999999 11.9913799999999995   T   T   T
  0.6635799999999999  5.2029899999999998  9.7509099999999993   T   T   T
  0.5943100000000000  3.5704099999999999 12.0331399999999995   T   T   T
  1.2721199999999999  7.8402200000000004  9.9969199999999994   T   T   T
  4.1607900000000004  3.0801500000000002 10.1604399999999995   T   T   T
 -1.1829499999999999  2.0489299999999999  3.4890599999999998   F   F   F
  1.2090300000000000  2.2847300000000001  7.1505099999999997   T   T   T
  4.8250700000000002  4.3102700000000000  5.3028300000000002   T   T   T
  7.2606099999999998  0.0050100000000000  5.2828400000000002   T   T   T
 -0.2530700000000000  4.3700099999999997  5.2895300000000001   T   T   T
  2.3092700000000002  0.0470700000000000  5.2958999999999996   T   T   T
  1.3134200000000000  6.3727700000000000  3.4890599999999998   F   F   F
  3.8097799999999999  2.0489299999999999  3.4890599999999998   F   F   F
 -3.6793200000000001  6.3727700000000000  3.4890599999999998   F   F   F
 -1.2408500000000000  6.6569900000000004  7.1318700000000002   T   T   T
  1.1833700000000000  6.5445200000000003  9.0435800000000004   T   T   T
  1.4012500000000001  2.3287399999999998 12.7010400000000008   T   T   T
  6.2093999999999996  6.4719600000000002  9.0143500000000003   T   T   T
  8.7252500000000008  2.0907700000000000  9.0038999999999998   T   T   T
  4.9082900000000000  4.3758800000000004 10.8401099999999992   T   T   T
  7.3043100000000001  0.0846000000000000 10.8216300000000007   T   T   T
 -0.2333100000000000  4.3419400000000001 10.8570899999999995   T   T   T
  2.3187300000000000  0.0035900000000000 10.8681000000000001   T   T   T
  3.9155799999999998  6.7472500000000002 12.6966300000000007   T   T   T
  6.3442699999999999  2.3413700000000000 12.6365300000000005   T   T   T
 -1.1476900000000001  6.7236900000000004 12.6785099999999993   T   T   T
  6.2508499999999998  2.2370899999999998  7.1099899999999998   T   T   T
  3.7672300000000001  2.0329199999999998  8.9783100000000005   T   T   T
  3.8099500000000002  6.6945300000000003  7.1685400000000001   T   T   T
  2.4495399999999998  4.4181699999999999 26.9441799999999994   T   T   T
