Si O  C  H  F 
 1.0000000000000000
     7.2781609999999999    0.0000000000000000    0.0000000000000000
     0.0000000000000000    7.2781609999999999    0.0000000000000000
     0.0000000000000000    0.0000000000000000    7.2781609999999999
 Si  O   C   H   F  
   6   6   6  72   6
Cartesian
  1.6922800000000000  7.2008299999999998  5.6143700000000001
  3.6891500000000002  5.0810000000000004  6.3146399999999998
  2.2443399999999998  4.5709200000000001  1.4186700000000001
  0.7297600000000000  4.5257699999999996  5.9688499999999998
  6.0154600000000000  6.2363499999999998  6.7412400000000003
  3.8858199999999998  7.0325300000000004  1.6751100000000001
  0.3082300000000000  6.1792499999999997  6.0149800000000004
  4.1917999999999997  6.3211100000000000  0.1695700000000000
  4.1328699999999996  6.4547100000000004  3.2438699999999998
  2.0568200000000001  4.8033400000000004  7.0234399999999999
  2.8701099999999999  6.1428200000000004  5.1650600000000004
  5.1926300000000003  5.4960800000000001  5.4654900000000000
  3.7999100000000001  3.6829100000000001  1.3850100000000001
  2.5322800000000001  0.8722400000000000  2.1132700000000000
  4.4578800000000003  1.0565000000000000  5.0468099999999998
  7.2367600000000003  2.0850499999999998  3.7742800000000001
  4.5080900000000002  3.8243000000000000  0.0851700000000000
  6.6622399999999997  6.5941700000000001  3.4699599999999999
  4.1390700000000002  0.4133400000000000  5.9166299999999996
  3.7520500000000001  2.6636600000000001  1.6164499999999999
  6.1769800000000004  3.6509900000000002  1.6727099999999999
  3.1428900000000000  4.3235500000000000  3.2651800000000000
  7.0074800000000002  3.3115500000000000  0.0574900000000000
  5.2515599999999996  1.8534200000000001  2.5258799999999999
  1.9684500000000000  3.2600300000000000  3.0861100000000001
  2.9003000000000001  2.3308700000000000  7.0843499999999997
  0.2246700000000000  0.9266400000000000  5.4006699999999999
  4.8904199999999998  1.4638199999999999  2.9757199999999999
  6.3049999999999997  7.0130400000000002  2.5527000000000002
  6.1082000000000001  5.8536700000000002  3.9682300000000001
  6.5992100000000002  1.7186100000000000  3.0238999999999998
  1.8410000000000000  2.8000699999999998  0.8719200000000000
  6.5249300000000003  4.5136700000000003  3.5219000000000000
  1.8347500000000001  6.3442499999999997  2.9341800000000000
  0.2664100000000000  3.1481100000000000  3.7556799999999999
  2.4487500000000000  0.9701800000000000  3.1190500000000001
  1.1228000000000000  0.2100100000000000  4.3227500000000001
  1.1278200000000000  3.2216300000000002  0.6970400000000000
  1.4988699999999999  0.7408800000000000  1.8062600000000000
  6.1844299999999999  2.0884200000000002  6.2686799999999998
  3.5936900000000001  2.6610999999999998  3.4088099999999999
  6.7046299999999999  1.7513099999999999  4.6570299999999998
  5.3746700000000001  3.9688400000000001  5.1420800000000000
  6.6429400000000003  0.1698600000000000  4.0722399999999999
  0.9226900000000000  1.7053799999999999  0.0982800000000000
  6.3854499999999996  2.7937099999999999  6.1328399999999998
  2.8468200000000001  4.9837400000000001  3.2282099999999998
  5.4779499999999999  3.2967300000000002  4.7645499999999998
  0.5721000000000001  6.1581599999999996  1.1919200000000001
  6.6155200000000001  4.1880100000000002  6.1476699999999997
  5.1149199999999997  6.2917699999999996  3.6076100000000002
  4.3965699999999996  4.1600799999999998  2.1598500000000000
  2.1087699999999998  1.4996900000000000  5.3584199999999997
  0.1468800000000000  2.9175700000000000  1.8767000000000000
  6.5779100000000001  1.1233599999999999  1.6257200000000001
  3.5682100000000001  6.4011199999999997  4.1685600000000003
  4.5214699999999999  2.8467300000000000  6.8607300000000002
  2.8061099999999999  1.8076600000000000  1.7785800000000000
  4.1084600000000000  2.7024900000000001  3.8861500000000002
  3.1214499999999998  2.5626199999999999  6.4457199999999997
  3.8529000000000000  1.4300900000000001  0.3048800000000000
  3.9614799999999999  0.9261600000000000  4.1121699999999999
  0.3725600000000000  1.6570000000000000  0.5876300000000000
  4.5228299999999999  1.1526700000000001  0.5305500000000000
  0.3934000000000000  1.1034100000000000  6.1841900000000001
  0.5012100000000000  6.8814700000000002  1.1653400000000000
  0.3901300000000000  6.2127499999999998  3.3587500000000001
  5.2996100000000004  5.0807599999999997  2.0070899999999998
  5.7399699999999996  5.6746499999999997  1.9167200000000000
  2.0596700000000001  2.6337700000000002  4.5469799999999996
  0.5599800000000000  2.3135400000000002  1.8048800000000000
  5.9594100000000001  1.9949200000000000  1.2072400000000001
  4.4733599999999996  2.1040899999999998  5.3968400000000001
  6.4173400000000003  3.8510599999999999  3.8239200000000002
  2.7124199999999998  1.1517800000000000  5.8421200000000004
  7.1679700000000004  3.8387500000000001  0.5714300000000000
  4.9754699999999996  4.1450500000000003  3.6194999999999999
  5.5160999999999998  0.8488599999999999  4.9122000000000003
  6.3988600000000000  5.5874300000000003  0.6640800000000000
  1.5278300000000000  2.9806900000000001  2.5445000000000002
  0.8017600000000000  1.4394400000000001  3.4958900000000002
  2.3849900000000002  5.9978300000000004  1.5840099999999999
  1.9652300000000000  6.1439100000000000  3.6009199999999999
  5.4745100000000004  2.2875500000000000  0.6421200000000000
  2.4759500000000001  2.1348300000000000  4.2770000000000001
  7.1403100000000004  0.6675200000000000  1.5844000000000000
  4.5322699999999996  4.6357999999999997  3.2908499999999998
  5.3862800000000002  0.1841200000000000  1.6590700000000000
  5.9836400000000003  3.4004300000000001  2.3099900000000000
  5.5037099999999999  3.9859399999999998  0.2967500000000000
  1.1343799999999999  4.7290000000000001  4.3496100000000002
  0.6796200000000000  4.7704300000000002  2.0768900000000001
  3.2714400000000001  3.9741300000000002  5.1265400000000003
  6.0624700000000002  0.6077300000000000  6.8377200000000000
  1.1268499999999999  2.9310600000000000  5.9077900000000003
  2.1529400000000001  0.0260700000000000  7.2145900000000003
