Si O  C  H  F 
 1.0000000000000000
     9.1699090000000005    0.0000000000000000    0.0000000000000000
     0.0000000000000000    9.1699090000000005    0.0000000000000000
     0.0000000000000000    0.0000000000000000    9.1699090000000005
 Si  O   C   H   F  
   6   6   6  72   6
Cartesian
  6.0976299999999997  3.0347300000000001  8.1024100000000008
  8.4841099999999994  1.9954200000000000  4.6177700000000002
  8.1838300000000004  1.8459600000000000  0.8138200000000000
  9.0243599999999997  6.5503200000000001  2.8415599999999999
  2.1323699999999999  5.2114500000000001  4.7454700000000001
  4.8401899999999998  1.6390000000000000  5.7246899999999998
  0.4961700000000000  2.7154900000000000  3.6148699999999998
  7.4081500000000000  2.0622199999999999  8.5226299999999995
  1.5556300000000001  4.6215799999999998  6.1619000000000002
  0.0260900000000000  1.8849499999999999  6.1725399999999997
  0.8242500000000000  5.4116799999999996  3.5516500000000000
  5.6357100000000004  2.7492000000000001  6.5730899999999997
  4.2456199999999997  0.3385700000000000  6.7807599999999999
  0.7993200000000000  3.8272900000000001  0.1586900000000000
  7.4348500000000000  5.6475700000000000  2.2801000000000000
  1.7097100000000001  4.6543999999999999  0.7144100000000000
  2.2273299999999998  0.0464400000000000  3.4256400000000000
  0.7699500000000000  2.3378700000000001  0.5422500000000000
  3.4266800000000002  6.7197199999999997  0.9186800000000001
  5.2184499999999998  0.9693300000000000  2.1248000000000000
  8.1589500000000008  7.3250000000000002  8.5880899999999993
  1.3230999999999999  6.7220899999999997  7.9633900000000004
  1.0941300000000000  1.7723100000000001  8.8454200000000007
  8.0848399999999998  0.6902199999999999  4.0519499999999997
  3.4104399999999999  3.2175400000000001  1.9747200000000000
  5.0383899999999997  7.1233899999999997  4.5031699999999999
  7.3301100000000003  5.3812499999999996  1.1918299999999999
  1.8494400000000000  0.1760600000000000  4.4036200000000001
  4.5285500000000001  1.2231799999999999  2.2787500000000001
  8.8961900000000007  7.8464000000000000  5.7387499999999996
  5.6112000000000002  3.6844600000000001  3.5005999999999999
  6.9874299999999998  4.8604799999999999  2.9394600000000000
  8.2013900000000000  5.6130899999999997  6.5568999999999997
  3.3048500000000001  4.5219500000000004  4.1551900000000002
  4.8372200000000003  2.9584899999999998  8.9598499999999994
  3.0341900000000002  7.3236400000000001  0.7065900000000001
  4.8886099999999999  4.9780100000000003  1.2702800000000001
  3.3846599999999998  6.4233900000000004  7.2611499999999998
  6.8124000000000002  8.1613900000000008  3.1258300000000001
  5.0466300000000004  8.2154299999999996  2.3216199999999998
  6.1176899999999996  7.3976699999999997  7.1833299999999998
  2.4782600000000001  4.4442100000000000  1.5257099999999999
  3.3245399999999998  8.9543700000000008  6.4668999999999999
  8.8355899999999998  7.6252899999999997  3.8555400000000000
  9.1602999999999994  4.1980199999999996  8.7216199999999997
  1.5654399999999999  8.7780400000000007  6.9754899999999997
  0.1230900000000000  7.2248700000000001  5.8688599999999997
  0.1369200000000000  3.6230000000000002  3.4112000000000000
  7.5664699999999998  8.9414099999999994  6.7217799999999999
  6.7101499999999996  6.4591099999999999  2.4251999999999998
  1.5894100000000000  5.7219199999999999  0.5717000000000000
  6.1296099999999996  0.3418400000000000  8.9779499999999999
  8.3782099999999993  1.8851199999999999  6.7824700000000000
  4.6186299999999996  5.2706499999999998  1.9112300000000000
  7.3326200000000004  3.0022000000000002  4.9711299999999996
  0.1172700000000000  8.8783899999999996  7.9602599999999999
  5.6413200000000003  6.4381300000000001  0.4415000000000000
  3.4318599999999999  2.7250999999999999  2.5467599999999999
  5.7566600000000001  8.8650699999999993  8.9713999999999992
  0.8289500000000000  7.1537699999999997  8.3324700000000007
  0.9972500000000000  3.7415099999999999  6.1996900000000004
  2.9476100000000001  8.4117400000000000  3.5462899999999999
  1.5201800000000001  0.3168100000000000  6.6634799999999998
  6.4398499999999999  5.2659799999999999  4.9200799999999996
  1.3645799999999999  1.9655700000000000  1.4879400000000000
  5.1143000000000001  8.8699499999999993  6.8347899999999999
  2.7080799999999998  3.0294300000000001  7.4691000000000001
  5.7458099999999996  1.0102700000000000  4.6343399999999999
  2.4965099999999998  1.0401199999999999  3.1738300000000002
  3.0162200000000001  1.2205500000000000  0.3048700000000000
  4.9210200000000004  4.5046200000000001  5.6656500000000003
  3.2481100000000001  6.9314900000000002  6.7342300000000002
  8.7139799999999994  5.0953499999999998  6.3530800000000003
  5.6951000000000001  6.7810300000000003  7.0066800000000002
  4.5974800000000000  7.6208900000000002  2.3142499999999999
  6.9892500000000002  4.7830100000000000  4.9320899999999996
  5.4716500000000003  7.1104700000000003  0.1586400000000000
  5.1019899999999998  3.2169099999999999  3.2380700000000000
  4.0592899999999998  0.5457900000000000  7.7846000000000002
  1.5431500000000000  9.0023599999999995  2.6429600000000000
  5.2687600000000003  6.8722599999999998  5.1748200000000004
  5.0990799999999998  5.1515700000000004  5.9923500000000001
  6.5227500000000003  7.9843500000000001  3.8029500000000001
  7.2320399999999996  8.7547200000000007  6.0618200000000000
  2.6315400000000002  2.2864900000000001  7.4621800000000000
  3.3755500000000001  1.5446000000000000  0.8741500000000000
  8.6343099999999993  9.1472700000000007  7.7256099999999996
  4.3774499999999996  4.9130300000000000  8.4823199999999996
  3.6876899999999999  4.5868300000000000  8.4303200000000000
  7.8658200000000003  6.7011599999999998  8.8828300000000002
  7.0713699999999999  2.4325299999999999  1.8684200000000000
  6.7027200000000002  4.4897799999999997  8.2266600000000007
  8.1123200000000004  0.2466400000000000  1.2854800000000000
  3.5830600000000001  2.3877700000000002  5.1389899999999997
  2.4773999999999998  6.8129200000000001  4.9428599999999996
  0.5105900000000000  7.2676400000000001  1.4550399999999999
