C  F 
 1.0000000000000000
    12.9729635699999992    0.0000000000000000    0.0000000000000000
     0.0000000000000000   12.9729635699999992    0.0000000000000000
     0.0000000000000000    0.0000000000000000    8.6486423800000001
 C   F  
 103  41
Cartesian
  7.3791500000000001  2.1623299999999999  4.7411700000000003
  8.5992499999999996  0.5452200000000000  7.5983200000000002
  1.8534999999999999  9.8298400000000008  1.3130599999999999
 10.2726900000000008  0.6412200000000000  3.1257700000000002
  1.8891899999999999  0.9687000000000000  1.6820600000000001
 11.7299199999999999  8.3891899999999993  8.2863600000000002
  9.0550499999999996  9.5401399999999992  2.5716399999999999
 11.4994099999999992  2.8567800000000001  4.1082700000000001
 11.1763200000000005 11.1956000000000007  0.6209300000000000
 11.7221899999999994  4.1707099999999997  4.4962799999999996
 11.4835200000000004  8.0119100000000003  5.5268699999999997
  6.2660999999999998 10.1625599999999991  6.2028699999999999
 10.6527399999999997  3.6069599999999999  0.4935400000000000
  0.6931900000000000  9.3670799999999996  0.6249500000000000
  2.6775400000000000  5.7369599999999998  4.3292999999999999
  2.4127100000000001 12.1801600000000008  0.0937700000000000
 12.3899799999999995  9.2425999999999995  7.3484100000000003
 10.4759300000000000  7.7338899999999997  6.5062300000000004
 12.4128100000000003  8.9681200000000008  5.9773300000000003
  6.8334599999999996  1.4403300000000001  5.9865800000000000
  7.2467699999999997  8.9939400000000003  4.1916000000000002
 12.7742599999999999  4.9017700000000000  4.0886600000000000
  9.6388599999999993  6.6459799999999998  6.1144900000000000
  5.0316700000000001  9.3708200000000001  6.4757199999999999
  5.1948200000000000  3.3026599999999999  6.3886500000000002
  5.2369599999999998  1.5867800000000001  3.4898199999999999
 10.3358000000000008  6.0197900000000004  5.0843800000000003
  9.7470499999999998 12.7179500000000001  2.0549100000000000
  5.9447200000000002  2.0971700000000002  6.7602300000000000
  9.5449199999999994  3.5760500000000000  5.1936700000000000
  0.6182400000000000  2.8670499999999999  3.0571999999999999
  0.8528900000000000  4.2034300000000000  3.4635400000000001
  8.2289999999999992 12.2094500000000004  8.5654100000000000
  0.0763400000000000 12.6276600000000006  0.8674400000000000
  7.8211300000000001  9.0017300000000002  2.8353000000000002
  6.7317400000000003 11.2379499999999997  6.9062000000000001
  7.4175899999999997 12.4552800000000001  2.3570000000000002
  4.4586899999999998  3.5757200000000000  2.5339499999999999
  0.3281000000000000 10.1323799999999995  8.0941700000000001
  2.6502800000000000 10.9020600000000005  0.9872800000000000
  1.9957300000000000  5.0998700000000001  3.1356199999999999
  7.3505200000000004  4.4270600000000000  5.9561500000000001
  7.6152300000000004 11.5023099999999996  4.6629600000000000
  0.4260300000000000  9.5188100000000002  5.0996300000000003
  3.0546000000000002  2.0054200000000000  6.5749599999999999
 10.5568500000000007  7.7501300000000004  7.9279500000000001
  1.9674700000000001 11.9471600000000002  7.3605999999999998
 12.5634099999999993  6.3051000000000004  3.9483199999999998
  8.1880500000000005  3.4338000000000002  5.3349299999999999
 12.4651300000000003 11.5820699999999999  8.5280100000000001
  7.9688200000000000  0.4488500000000000  6.2059100000000003
  3.3595999999999999  5.6695900000000004  1.3761500000000000
 10.2100200000000001  2.4376099999999998  4.6213600000000001
  6.9682800000000000 10.1179000000000006  4.8663499999999997
  5.3800100000000004 12.0028600000000001  3.1877599999999999
 11.4457599999999999  6.8968600000000002  4.6029600000000004
  3.8986800000000001  2.9352900000000002  6.4749100000000004
  8.8664100000000001  6.1679700000000004  7.1790099999999999
  1.6003799999999999  5.9400800000000000  8.1802899999999994
 12.3102800000000006  2.1924600000000001  3.3064800000000001
 11.6983200000000007  0.9861300000000000  2.7790599999999999
  3.4738699999999998  4.7939699999999998  2.7086999999999999
  1.0722200000000000 10.6385000000000005  5.7846200000000003
 12.1070799999999998  0.0417400000000000  1.8400700000000001
 12.5245599999999992  7.8117400000000004  2.0568399999999998
  9.4965399999999995  6.8244600000000002  8.3614300000000004
  9.1052000000000000 11.1211099999999998  8.0031700000000008
  8.4968900000000005 12.5521499999999993  1.4331400000000001
  1.9955700000000001  5.9124499999999998  1.0192900000000000
  1.3136800000000000  6.1021500000000000  2.1805099999999999
  1.4075100000000000 12.8931799999999992  0.8635300000000000
  7.8505300000000000 12.5124300000000002  3.7939699999999998
  2.8590499999999999  1.6830099999999999  2.2684099999999998
 10.4207699999999992  4.6379400000000004  4.9480599999999999
  7.1462800000000000  8.7317999999999998  1.5646000000000000
  7.8880999999999997 11.8310099999999991  6.0895299999999999
  9.9525400000000008 10.4181500000000007  0.2227100000000000
  1.7414900000000000 12.8591499999999996  6.3454699999999997
  7.6292000000000000  5.4700800000000003  6.8408600000000002
  8.9547200000000000  6.5249300000000003  0.9341200000000000
  5.2813299999999996  5.2019799999999998  4.8362499999999997
  1.9214300000000000  1.3123199999999999  6.3390399999999998
  0.2581700000000000  6.8596700000000004  2.7433500000000000
  9.0374499999999998 11.1628299999999996  6.6699700000000002
  8.3081700000000005  0.8813100000000000  4.6198899999999998
  5.9779600000000004 11.4027700000000003  0.6781300000000000
  4.1503300000000003  2.2129599999999998  2.6760199999999998
  3.9681400000000000  5.3627200000000004  4.2067500000000004
  6.1532499999999999  5.1862500000000002  3.5769799999999998
  1.5242300000000000  2.3393000000000002  2.0419499999999999
  8.0353300000000001  9.0864300000000000  0.5826000000000000
  9.1870700000000003  9.6946300000000001  1.0955900000000001
  6.7811599999999999 11.6477699999999995  8.2492900000000002
  6.1675500000000003  2.5399500000000002  3.8425500000000001
  1.3492200000000001 10.6625599999999991  7.1228400000000001
  5.9330699999999998  3.7377099999999999  2.9964100000000000
  5.1225500000000004  0.1949400000000000  3.8195899999999998
 10.9505300000000005 12.1788000000000007  1.5328999999999999
  5.8260899999999998  4.3080499999999997  5.6667699999999996
  9.6358899999999998  1.2456000000000000  4.1781899999999998
 12.7057699999999993  8.4149100000000008  0.7512799999999999
  1.1615000000000000 11.9705300000000001  5.1850300000000002
  6.2193899999999998 12.0321899999999999  1.9593799999999999
  7.8315400000000004  8.5705700000000000  7.9110500000000004
  5.0299100000000001 10.7390000000000008  3.6590300000000000
  3.7402199999999999 12.7514299999999992  0.1729200000000000
  8.3081700000000005  1.7403599999999999  8.2467000000000006
  7.5572800000000004  5.4952300000000003  3.8043100000000001
 11.3958100000000009  8.3020700000000005  2.6824100000000000
 11.3453599999999994  2.3923500000000000  0.1646800000000000
  2.0479799999999999 11.9931800000000006  4.0797200000000000
  4.9958600000000004 10.4559800000000003  0.4831300000000000
  3.7148699999999999  7.0094000000000003  1.4905299999999999
 12.2711799999999993 12.2425599999999992  7.3145800000000003
  9.8308499999999999  3.9691500000000000  8.1026000000000007
  9.8575400000000002  3.3216800000000002  1.6004700000000001
  3.3885600000000000 11.2450600000000005  2.0928800000000001
  4.5983499999999999  0.0194700000000000  5.1250600000000004
  0.2880700000000000  5.6843599999999999  7.8459099999999999
  2.3508800000000001  4.9528499999999998  7.5522999999999998
  5.8636799999999996  6.0700500000000002  2.5534500000000002
  4.0465299999999997 10.1859599999999997  6.9448600000000003
  1.8589300000000000  7.1284299999999998  7.5077900000000000
  0.7469600000000000  1.9805100000000000  6.2067300000000003
  9.8327200000000001 10.4318299999999997  5.7430599999999998
  6.5922299999999998  5.8545299999999996  7.5452100000000000
 11.6135199999999994  4.4123500000000000  0.8656700000000001
  6.0076299999999998  8.0687999999999995  1.2480000000000000
 12.7833699999999997 12.2846600000000006  4.7170699999999997
  1.2226200000000000  3.2465299999999999  0.8976300000000000
  6.8731999999999998  7.7516900000000000  4.6468800000000003
  4.5247999999999999  8.9045799999999993  5.3262099999999997
  6.7133000000000003  3.4300099999999998  1.7770900000000001
  1.3998400000000000  8.4833800000000004  4.7297000000000002
 10.0257199999999997  0.6059300000000000  7.4871400000000001
  4.2365000000000004  5.1196000000000002  0.4129200000000000
  7.8744300000000003  5.7616500000000004  1.1532199999999999
  2.1577600000000001  9.1081900000000005  2.4291600000000000
  9.9293200000000006 10.1884599999999992  3.3316900000000000
  5.1878099999999998  8.2567299999999992  7.2430199999999996
  9.5928000000000004  6.5302199999999999  2.2011900000000000
  1.9905400000000000  6.4144199999999998  5.2615900000000000
 12.9712200000000006  9.9387299999999996  3.7714400000000001
  5.4732799999999999  1.3872800000000001  7.8555799999999998
