C  F  H 
 1.0000000000000000
    11.5857098379999996    0.0000000000000000    0.0000000000000000
     0.0000000000000000   11.5857098379999996    0.0000000000000000
     0.0000000000000000    0.0000000000000000    7.7238065589999998
 C   F   H  
  85  51   8
Cartesian
  6.2395500000000004  7.1696499999999999  6.7395300000000002
 10.8146500000000003 10.1931100000000008  6.5423099999999996
  8.4253800000000005  9.0663699999999992  2.4798800000000001
  4.9347599999999998  8.0129800000000007  3.7253200000000000
  0.5293400000000000  9.0583399999999994  3.1850299999999998
  7.0774499999999998 10.2998700000000003  0.6718100000000000
  3.7365599999999999  2.7362600000000001  6.3131500000000003
 10.4736300000000000  9.0745500000000003  7.5197900000000004
  6.3986499999999999  7.9848299999999997  1.7190300000000001
 10.5343000000000000  4.3982500000000000  6.5444100000000001
  6.1033099999999996  0.5485200000000000  5.0503600000000004
  6.0612000000000004  9.4763199999999994  6.1638400000000004
  3.9948000000000001  8.3953900000000008  7.5883200000000004
  6.2808700000000002  8.8981100000000009  0.7338700000000000
  8.1958199999999994  4.1517900000000001  7.5185100000000000
 10.2386599999999994  1.5334900000000000  5.7239599999999999
  5.8775000000000004  6.5797900000000000  2.1556799999999998
  9.6449099999999994  9.0752900000000007  3.1638299999999999
  0.3668500000000000 11.0566399999999998  7.1619700000000002
  8.4535599999999995  9.9094099999999994  6.6785800000000002
  0.5590400000000000  2.5557699999999999  6.7272699999999999
  2.0084700000000000  5.4464800000000002  5.5599400000000001
 10.8986000000000001  9.1767400000000006  2.4819300000000002
  1.0006999999999999  4.3847399999999999  5.1022200000000000
  0.4776800000000000  5.8475500000000000  0.4469100000000000
  8.2661200000000008 11.1586700000000008  4.8411000000000000
  9.6479999999999997  9.1028000000000002  4.5982700000000003
  3.4005399999999999  9.6293299999999995  0.6629200000000000
 11.5537799999999997  3.5868600000000002  5.8434100000000004
  7.9473799999999999  4.0513599999999999  4.4985200000000001
  4.3256699999999997  5.0612000000000004  0.6434200000000000
  6.9134900000000004  6.2316000000000003  4.4883699999999997
 10.9370499999999993  1.7943300000000000  7.0995999999999997
  0.7593200000000000  2.0853000000000002  4.4990600000000001
  1.9420400000000000  5.2710800000000004  0.3508000000000000
  6.8751600000000002  8.7207100000000004  5.1048600000000004
  8.5212100000000000  9.8563100000000006  1.2613300000000001
  2.9875400000000001  5.1661200000000003  1.2460599999999999
  9.7886500000000005  0.1347400000000000  0.3687700000000000
  8.3569399999999998  9.6208200000000001  5.2765700000000004
  6.2330800000000002  8.8156199999999991  3.7064499999999998
  9.3683499999999995  3.6924700000000001  7.1016700000000004
 10.9956600000000009  2.4517400000000000  4.8651600000000004
 10.9600700000000000  9.6891200000000008  1.1630900000000000
  3.9819100000000001  5.1519399999999997  6.9082699999999999
  7.1311000000000000 11.5322700000000005  5.7019299999999999
  9.8597400000000004  2.5620500000000002  0.1714300000000000
  6.6768599999999996  7.2520300000000004  5.3752800000000001
  9.0022000000000002  1.3677600000000001  0.6297500000000000
  0.7013300000000000 10.1772600000000004  0.5773300000000000
  1.3046100000000000  0.1563600000000000  6.0372199999999996
  1.8744000000000001  9.7203199999999992  1.1266400000000001
  7.0037399999999996  4.8451000000000004  6.8487900000000002
  5.6143400000000003  4.1159600000000003  4.9933199999999998
  3.4333800000000001  0.9033900000000000  2.9698699999999998
  3.7152500000000002  1.9885100000000000  7.6499400000000000
  7.1613600000000002  6.5893199999999998  3.0280300000000002
  5.8872000000000000  3.7850600000000001  7.1830900000000000
 11.3614400000000000  6.0404000000000000  1.7711900000000000
 11.1218599999999999  0.6443100000000000  0.0990800000000000
  2.5312999999999999  5.3066500000000003  6.8404900000000000
  8.9663599999999999  8.9926399999999997  7.7106300000000001
  5.4459799999999996  4.1411300000000004  0.8522400000000000
  5.8207800000000001  5.6462899999999996  0.9930300000000000
  2.8633500000000001  5.0695699999999997  2.6928000000000001
  5.4886499999999998  8.4852799999999995  7.2583700000000002
  6.9050900000000004  4.8873800000000003  5.2450599999999996
  1.8323199999999999  3.1615099999999998  4.4008099999999999
 10.9429999999999996  5.4330200000000000  7.3444500000000001
  3.0672199999999998  6.0284100000000000  4.7241600000000004
  9.5205000000000002 11.0460399999999996  6.7153200000000002
  4.7195600000000004  3.9797699999999998  6.2115600000000004
  4.7194000000000003  6.8941800000000004  2.9971899999999998
  6.4465300000000001  6.0812799999999996  7.4916900000000002
  0.4615300000000000  9.1541800000000002  4.5769299999999999
  7.0465200000000001 10.4946300000000008  6.7922099999999999
 10.8165200000000006  9.4038500000000003  5.2328700000000001
  9.4323599999999992  0.4292800000000000  5.5953499999999998
  2.2382700000000000  3.7930899999999999  3.0755200000000000
  1.3828600000000000  1.6615400000000000  5.8317899999999998
  1.7862100000000001  9.1905699999999992  2.4481000000000002
  3.5915200000000000  5.9735699999999996  3.4473300000000000
  7.2930400000000004  8.2090200000000006  2.8059400000000001
  2.6842000000000001  2.4267300000000001  5.5178900000000004
  9.7642500000000005 10.6734799999999996  1.2773099999999999
  0.8701000000000000  6.8617100000000004  5.1890999999999998
 10.5763599999999993  0.5387900000000000  3.1663600000000001
  7.7719800000000001  3.6749200000000002  0.9824200000000000
  3.1227900000000002  8.1739599999999992  6.5455800000000002
  8.3065300000000004 11.4617199999999997  3.4961000000000002
  4.1648600000000000  9.4515600000000006  1.7640899999999999
  4.8715500000000000  1.3702799999999999  0.2682500000000000
  0.8111600000000000  6.3650000000000002  2.6485599999999998
  7.5859899999999998  3.8233000000000001  3.1965300000000001
  5.9246299999999996 10.1652799999999992  3.3219699999999999
  3.0833499999999998  0.4023100000000000  4.2253499999999997
  8.2341800000000003  5.9978400000000001  2.3675199999999998
  4.1186900000000000 10.6692099999999996  0.1340500000000000
  9.8221200000000000  6.0256100000000004  0.1629600000000000
  4.9659199999999997 10.1615300000000008  5.6941800000000002
  5.5577399999999999  3.2023299999999999  1.8294999999999999
  2.7052900000000002  1.1474899999999999  0.0848200000000000
  1.5699200000000000  9.0151299999999992  5.3371599999999999
  7.8803099999999997  1.2441599999999999  7.5744899999999999
  5.7981600000000002  2.8067700000000002  4.5476400000000003
  2.4818600000000002 11.1321800000000000  5.9968100000000000
  6.3409199999999997  2.5227499999999998  6.7453000000000003
  0.1185500000000000  4.8113500000000000  4.1012800000000000
  8.3816400000000009  7.7980200000000002  7.6571100000000003
 10.3207699999999996  6.8390500000000003  4.1467299999999998
  0.1889300000000000  0.9524200000000000  1.2989500000000000
  3.3481100000000001  2.8134100000000002  0.9472800000000000
  6.0418500000000002  0.7791600000000000  3.7934299999999999
  0.9966000000000000  7.1974000000000000  0.3400200000000000
  8.8128200000000003  6.4783299999999997  5.9307400000000001
 10.4654100000000003  7.1666800000000004  1.7194199999999999
  2.3998699999999999 10.0785199999999993  3.3680599999999998
  4.9697800000000001  0.8031600000000000  5.6665900000000002
  2.5414400000000001  7.9957500000000001  2.4550500000000000
  1.1878899999999999  2.8968799999999999  0.2169800000000000
  5.1487800000000004  4.5026099999999998  3.5794299999999999
 10.8565100000000001  7.8951500000000001  6.9744599999999997
  6.5001100000000003 11.4047800000000006  1.3727199999999999
  4.1823899999999998  0.0553000000000000  2.2369900000000000
  1.1018699999999999  3.5302099999999998  2.2198199999999999
 10.5571000000000002  5.1162700000000001  2.1484600000000000
  3.8124099999999999  7.2870400000000002  0.6988300000000000
  2.2325699999999999  0.9464800000000000  2.3097200000000000
  8.5997100000000000  1.4525300000000001  1.9616400000000001
  0.6848600000000000 11.2752599999999994  4.8873199999999999
  8.2128300000000003  2.8187700000000002  5.0833300000000001
 10.2728300000000008  2.8278599999999998  3.7130200000000002
  9.1876599999999993  4.6043700000000003  4.5037300000000000
  4.1419600000000001  2.0124599999999999  3.1746799999999999
  3.9801500000000001  8.5754999999999999  4.4761699999999998
 10.4227500000000006  3.1154899999999999  1.3342400000000001
  0.7934400000000000  1.3585799999999999  3.6862400000000002
  3.3329200000000001  6.9237399999999996  5.3107899999999999
 11.4708299999999994  6.7682599999999997  4.6671500000000004
 10.1705500000000004  1.5049399999999999  3.1224599999999998
  4.5035600000000002  6.0277700000000003  6.4389399999999997
  2.8940500000000000  3.1214000000000000  2.5411000000000001
  9.8999900000000007 11.0477699999999999  2.2378200000000001
  9.5157399999999992  6.5460799999999999  5.2053700000000003
