Si O  F 
 1.0000000000000000
    11.2450749999999999    0.0000000000000000    0.0000000000000000
     0.0000000000000000   11.2450749999999999    0.0000000000000000
     0.0000000000000000    0.0000000000000000   11.2450749999999999
 Si  O   F  
  20  20  60
Cartesian
 10.4650300000000005  5.7980700000000001  6.6019600000000001
  0.2360400000000000  4.0676399999999999 11.0650899999999996
  2.1658100000000000 10.9159600000000001 10.1393900000000006
  6.7631800000000002  2.4730599999999998  4.5166899999999996
  8.8709500000000006  1.2603599999999999  1.5456900000000000
  7.3210899999999999  5.4794000000000000  9.1949699999999996
  1.8690500000000001  7.8456999999999999  2.0806399999999998
  3.3267300000000000  7.2681800000000001  8.4652300000000000
  7.5725499999999997  8.8677700000000002  7.4750199999999998
  6.5397800000000004  0.1704900000000000  0.0384100000000000
  4.8832100000000001  9.6497100000000007  4.4508599999999996
  4.2086699999999997  2.1261999999999999  7.6284700000000001
 10.9079499999999996  9.3406300000000009 10.0926299999999998
  1.9606800000000000 10.1880100000000002  5.4419199999999996
  8.6514100000000003  4.7105800000000002  4.2896299999999998
  5.6608999999999998  5.2287100000000004  4.4189699999999998
  3.7163599999999999  0.9206299999999999  1.2480800000000001
  9.5267300000000006  8.9373400000000007  3.6433700000000000
  4.3299799999999999  3.8867300000000000  0.7050100000000000
  1.5598700000000001  2.6579100000000002  3.9017400000000002
  7.8357299999999999  5.8531100000000000  0.8007700000000000
  7.2017699999999998  8.1560199999999998  1.2530900000000000
  6.3738400000000004  7.1978999999999997  0.9673200000000000
  9.2334399999999999  1.0074900000000000  6.2116100000000003
  7.8927300000000002  0.1460900000000000  0.9897100000000000
  8.7516999999999996  6.7843000000000000  0.8345100000000000
 10.1758100000000002  0.5650600000000000  8.4848700000000008
  1.0817099999999999  9.8419799999999995 10.5366999999999997
  3.7687700000000000  2.5084900000000001  1.1155999999999999
  9.7334999999999994  5.1147499999999999  5.3590900000000001
  5.5603300000000004  3.5771099999999998  4.4687400000000004
  8.2611100000000004  3.1611899999999999  4.4474400000000003
  5.2232599999999998  0.3157900000000000  0.9603400000000000
  7.2656900000000002  5.5322500000000003  4.4910699999999997
  9.7744999999999997  2.7789400000000000  7.4788600000000001
  9.0195600000000002  1.1031599999999999  8.4137199999999996
 10.4015299999999993  0.6458700000000001  6.5532800000000000
  3.4184100000000002  9.9157200000000003  4.8546699999999996
 11.0006699999999995  2.4130300000000000  7.6409300000000000
  2.5727500000000001  0.2804700000000000  0.3446500000000000
  0.2012700000000000  4.0414899999999996  1.4331000000000000
  0.8141400000000000  6.7713500000000000  1.5831299999999999
  5.8080200000000000  6.0577399999999999  9.2870500000000007
  7.1981200000000003  4.1396499999999996 10.0825200000000006
  4.1406999999999998  4.1278600000000001 10.3941599999999994
  4.6941100000000002  0.8590700000000000  6.8823600000000003
 10.5789899999999992  7.8392299999999997 10.5931499999999996
  8.4986099999999993  9.6288900000000002  6.4165900000000002
  1.8175100000000000  7.8737100000000000  8.3112200000000005
  0.3490000000000000  2.9187599999999998  4.8771899999999997
  7.9318000000000000  2.5786799999999999  1.5256200000000000
  8.3815700000000000  8.9716199999999997  8.8965399999999999
  3.0341100000000001  5.7137099999999998  8.2125699999999995
  8.9489500000000000  4.8932500000000001  2.7239599999999999
 10.0227599999999999 10.2383500000000005  4.3858699999999997
  0.7624600000000000  5.3580100000000002 10.4121000000000006
 10.0152300000000007  3.7896899999999998 10.6111900000000006
  0.8514900000000000  8.9827399999999997  2.6560800000000002
  5.8422700000000001  3.9749599999999998  1.1821699999999999
  3.5224400000000000 10.2301800000000007  9.4811200000000007
  3.3938600000000001  0.6487200000000000  2.7943899999999999
  3.3575499999999998  4.9028400000000003  1.4919199999999999
  1.6326300000000000  0.6834300000000000  9.0403300000000009
  6.6472800000000003  1.0877200000000000  9.9427500000000002
  0.8903200000000000  5.6945399999999999  6.3617299999999997
  9.2675800000000006  0.9092800000000000  3.0085600000000001
  5.4517899999999999  8.2822200000000006  5.0609900000000003
  1.0212500000000000 11.1581100000000006  4.5739900000000002
  2.0905399999999998 10.8369300000000006  6.9028200000000002
  5.8247700000000000 10.7965300000000006  4.8358200000000000
  5.0724700000000000  5.9359099999999998  3.1368800000000001
 10.3010900000000003  7.5675100000000004  4.0937599999999996
  2.7425000000000002  2.4784500000000000  7.1470599999999997
  6.3933600000000004  1.6356999999999999  3.2641800000000001
  5.0330399999999997  9.5336800000000004  2.8016899999999998
  2.8041299999999998  8.4956999999999994  1.0742000000000000
  9.6085700000000003  9.0636500000000009  2.0744799999999999
  4.9100700000000002  5.7461300000000000  5.7013400000000001
  4.2479899999999997  7.7979500000000002  7.2665699999999998
  3.8860100000000002  7.7509399999999999  9.9014600000000002
  2.2096000000000000  4.1580000000000004  3.7689400000000002
 10.3232999999999997  5.3445099999999996  8.0866399999999992
  2.6434199999999999  7.1040299999999998  3.1639300000000001
  7.5323399999999996  4.9127400000000003  7.6841600000000003
 10.2709200000000003  1.5209299999999999  0.7388900000000000
  9.7217300000000009 10.2857400000000005 10.6931799999999999
  6.3402599999999998  9.8476700000000008  7.8438699999999999
  6.8090599999999997  1.5801799999999999  5.8967499999999999
  1.1230599999999999  1.8090400000000000  2.5850300000000002
  7.2329200000000000  7.3719900000000003  7.1316400000000000
  8.0288500000000003  8.7447300000000006  3.9538600000000002
  2.7567900000000001  2.0180799999999999  4.6834199999999999
  4.0366900000000001  1.7811200000000000  9.2046399999999995
  1.3033600000000001  2.9573900000000002 10.7253000000000007
  5.2151899999999998  3.3544200000000002  7.5996499999999996
  9.9973399999999994  7.2915299999999998  6.6411499999999997
  6.3944299999999998  9.9014399999999991 10.6731099999999994
  8.3484900000000000  6.5476400000000003  9.6678499999999996
 11.0020299999999995  9.1669699999999992  8.4500899999999994
  1.1357900000000001  8.7459000000000007  5.4591599999999998
