chf_slab_anneal_675
 1.0000000000000000
    11.7192291930000003    0.0000000000000000    0.0000000000000000
     0.0000000000000000   11.7192291930000003    0.0000000000000000
     0.0000000000000000    0.0000000000000000   30.8128194620000002
 C   F   H  
  75  61   8
Cartesian
 10.1526700000000005  8.4243400000000008  5.7887399999999998
  7.0232200000000002  0.8930000000000000  3.1498699999999999
  9.1150099999999998  0.6517800000000000  7.4891600000000000
  4.9203900000000003  3.7017600000000002  9.0840099999999993
 10.0203600000000002  4.3682600000000003  9.2591500000000000
  9.0749600000000008  3.9123800000000002 10.4292300000000004
  8.7160100000000007  9.7492000000000001  3.3328700000000002
  7.3640499999999998 11.0767600000000002 10.7907899999999994
  0.1676600000000000  0.1786300000000000 11.1516800000000007
  2.5394999999999999  2.8193400000000000  4.7799500000000004
 10.7431599999999996  3.0866099999999999  9.0378900000000009
 10.5754199999999994  0.9415400000000000  7.7483399999999998
  8.7875999999999994  5.3301900000000000  4.2482499999999996
  8.4691500000000008  9.2763799999999996  7.4925100000000002
  2.8209900000000001  0.6367900000000000  5.9324000000000003
  0.8996300000000000  8.6008600000000008  9.5732800000000005
  6.1297800000000002  0.2416900000000000  4.0589500000000003
 11.5847999999999995  8.4102700000000006 10.8189700000000002
 10.2650199999999998  8.4715900000000008 10.6586400000000001
 10.2282100000000007  5.9393000000000002  9.4971899999999998
 11.0741899999999998 10.2954200000000000  8.9431899999999995
  9.5190999999999999  2.5489099999999998 10.7469999999999999
 11.5611700000000006  7.8887999999999998  5.5448700000000004
  0.4763600000000000  9.7586499999999994  4.0011299999999999
  5.3140900000000002  0.6974900000000001  5.1159800000000004
 10.7923500000000008  0.7786600000000000 10.3996800000000000
  4.7892000000000001  3.1269999999999998  6.1724800000000002
 10.9292400000000001  2.4178099999999998 10.3131199999999996
  6.8790800000000001  2.2956500000000002  3.3880200000000000
  9.2473899999999993  6.3151599999999997 10.6057500000000005
 10.6212999999999997  9.0074799999999993  8.1457499999999996
  3.0458799999999999  1.6122700000000001 14.9417100000000005
  1.3462900000000000  4.3435600000000001  6.0527499999999996
  8.5635600000000007  5.0887200000000004 11.0084800000000005
 11.2260600000000004  6.4298000000000002  8.7263400000000004
  2.7279499999999999  1.7208399999999999  7.0256200000000000
  7.5418099999999999  9.9441299999999995 10.0965799999999994
  7.3020300000000002  4.9781899999999997 11.7700700000000005
  9.2416300000000007  6.3732300000000004  4.9757999999999996
  4.2256299999999998 11.6384200000000000  5.7577600000000002
  5.4413499999999999  1.9965800000000000  5.3746400000000003
  3.2780999999999998  3.0292500000000002  6.2588200000000001
  2.5556199999999998  4.1510400000000001  6.8574599999999997
  6.0184300000000004  4.6621899999999998 11.1384200000000000
  2.2220000000000000  1.3393299999999999  4.7238600000000002
  0.0711900000000000  3.5546899999999999  4.2918000000000003
  5.4090999999999996  5.4231100000000003  5.0026000000000002
  6.7137599999999997  8.4842200000000005  5.8486599999999997
  7.3192500000000003  5.2060000000000004 13.1751799999999992
  0.5636900000000000  9.9856900000000000  9.6861400000000000
  8.8549399999999991 11.4587500000000002  8.8899600000000003
  9.3497800000000009  7.6575199999999999  4.6111800000000001
  9.3181799999999999  7.5039600000000002 11.2502800000000001
  9.2783899999999999  1.2069500000000000 10.7927599999999995
  5.4440900000000001  3.8651800000000001  4.9474000000000000
  4.1981799999999998  6.0398899999999998  4.3758800000000004
  5.5461700000000000  3.1686100000000001  7.6663699999999997
  1.2710800000000000  3.5740200000000000  4.9395800000000003
  7.3215100000000000  9.4306500000000000  6.7212399999999999
  9.7257300000000004  8.8655700000000000  7.0047600000000001
 11.6940600000000003  7.9563199999999998  8.4084400000000006
  0.9770900000000000 10.9298000000000002 10.6934900000000006
  8.1021400000000003  0.4328100000000000 10.1036900000000003
  6.2512600000000003  2.7546900000000001  4.5123400000000000
  0.1788100000000000  8.4278200000000005  4.1636699999999998
 10.6471099999999996  2.4583699999999999  7.8999899999999998
  1.1913100000000001  7.8647499999999999 10.8713400000000000
  3.8172600000000001 10.1734799999999996  5.0173899999999998
  5.6517099999999996  4.6546000000000003  9.7677399999999999
  9.9474199999999993  9.3479600000000005  9.4514399999999998
 10.4650200000000009  0.0067300000000000  9.0361799999999999
  8.5791500000000003  9.8682099999999995  8.9826300000000003
  0.7558500000000000  8.1403499999999998  6.9727300000000003
 11.2971900000000005  2.9704799999999998  3.1868799999999999
  8.9987399999999997  8.2012699999999992  3.2813099999999999
  0.3066400000000000 10.7357999999999993  4.9556399999999998
  3.0718899999999998  5.3386899999999997  4.6221899999999998
  4.4777199999999997 11.2069200000000002  7.1400699999999997
  2.7614500000000000 10.4960699999999996  4.1961500000000003
  6.4572300000000000  6.0254700000000003  4.3587300000000004
  9.7974300000000003  5.2685700000000004 16.0314599999999992
  0.4002400000000000  5.5253500000000004  8.2326099999999993
 11.6462199999999996  6.4620100000000003  5.5996499999999996
  1.1279999999999999  9.4820700000000002  7.0224599999999997
  3.3466800000000001  5.2618700000000000  6.9549399999999997
  6.5277799999999999  5.3968299999999996  9.0486400000000007
  2.5727400000000000  0.8755200000000000  3.4804400000000002
  7.1120299999999999  1.3847200000000000  9.7630099999999995
  7.2493600000000002  7.2404200000000003  6.1957300000000002
  9.0780700000000003  4.5023200000000001  8.2238000000000007
  8.6879399999999993  7.3620799999999997 16.9893299999999989
  0.5968500000000000  0.7219500000000000 12.3433799999999998
  3.2547299999999999  1.3419399999999999  8.2329000000000008
 11.4451000000000001  6.3850499999999997  3.0988899999999999
  1.9468000000000001  7.4979399999999998  6.7990899999999996
  4.4985400000000002  9.4028399999999994  4.1856000000000000
  1.3898400000000000  1.8486499999999999  7.3159900000000002
  3.5997300000000001  2.8419400000000001 15.0558700000000005
  5.1227299999999998  4.1110300000000004 11.9596599999999995
  8.0315499999999993  4.5198999999999998  4.9866999999999999
  1.8404400000000001  1.8473900000000001 14.3691899999999997
  8.4368200000000009  4.9799100000000003 13.9399999999999995
  6.7542200000000001  3.7075200000000001  7.3193000000000001
 10.4802599999999995  8.5059000000000005 15.9634400000000003
  6.2769800000000000  5.4178400000000000 14.0366300000000006
  0.7849900000000000  1.1233599999999999  4.7496400000000003
  5.4234499999999999  8.3934999999999995  6.2803000000000004
  3.9236499999999999  7.2875699999999997  4.8511600000000001
  4.3879400000000004  6.0334199999999996  3.0939299999999998
  3.7016700000000000  0.7959000000000001 14.1249699999999994
  3.3278300000000001  9.4727399999999999  6.0976200000000000
  0.2632800000000000  3.0334599999999998 10.9994700000000005
  1.5553900000000001  6.4998100000000001 10.6069499999999994
  2.1298100000000000  8.3299000000000003 11.7989899999999999
  8.9807400000000008 11.5128699999999995  6.3586200000000002
 10.0158600000000000 10.3378899999999998  3.4321700000000002
  1.9465900000000000 11.3992500000000003  6.3585399999999996
  9.4605099999999993  5.9933100000000001  6.2986899999999997
  2.0775299999999999  6.9780400000000000  3.3790900000000001
  9.1171900000000008  2.7780000000000000  4.0964799999999997
  9.8425200000000004  0.7253900000000000  3.9462999999999999
  2.9530099999999999  1.0798900000000000 16.2105400000000017
  8.1986200000000000 10.2375699999999998  4.5606600000000004
  6.5606700000000000 10.5174400000000006  7.0545999999999998
  8.6421700000000001  7.8281900000000002 12.4187999999999992
  2.0658099999999999 10.6960800000000003 11.4576600000000006
  4.1582800000000004  2.9268200000000002  9.8644599999999993
  8.2308100000000000  1.7321000000000000  7.3726300000000000
  6.7634299999999996  8.4197600000000001  4.4294300000000000
  5.5924500000000004  1.8639900000000000  7.8934400000000000
  2.4074200000000001  3.9069600000000002  8.3020800000000001
  5.5419900000000002  5.6896899999999997  6.3606499999999997
 11.6989699999999992  6.5094200000000004 15.2726900000000008
  7.0792000000000002  8.8142200000000006 10.6675400000000007
  6.2192299999999996 10.6512399999999996  3.7704100000000000
 10.8034199999999991  4.2436299999999996  5.1766300000000003
 11.1222899999999996  0.6428199999999999  6.8762999999999996
  9.4563799999999993  7.9977799999999997 16.5594399999999986
 11.0288400000000006  7.7552599999999998 15.6539099999999998
 10.9420099999999998  5.8755400000000000 15.6595999999999993
  0.5663400000000000  4.9622999999999999  6.4149500000000002
 10.3804200000000009  3.0210599999999999  7.0531100000000002
  3.2206399999999999  3.0327899999999999  3.9081800000000002
  9.1629000000000005  5.9669900000000000 16.2241000000000000
