C  F  H 
 1.0000000000000000
    11.7192291930000003    0.0000000000000000    0.0000000000000000
     0.0000000000000000   11.7192291930000003    0.0000000000000000
     0.0000000000000000    0.0000000000000000    7.8128194620000002
 C   F   H  
  75  61   8
Cartesian
 10.2428000000000008  8.3798999999999992  2.6779299999999999
  5.4499000000000004  3.8288400000000000  1.9298299999999999
 10.0066500000000005  1.2813000000000001  7.5354299999999999
  9.0541199999999993  7.4473900000000004  6.8910700000000000
  9.4307700000000008  7.7157600000000004  1.6246200000000000
  9.5427499999999998  0.0010100000000000  5.3989399999999996
  0.9287200000000000  9.7166099999999993  6.3921000000000001
  7.8708600000000004  5.4214399999999996  6.0160299999999998
  6.9246900000000000  8.2834900000000005  2.9365700000000001
  5.4232199999999997  5.3096199999999998  1.8246400000000000
  0.0491800000000000  3.4949200000000000  1.4451600000000000
  2.2456299999999998  1.2929800000000000  1.8004400000000000
  6.8006900000000003  3.2318500000000001  6.9423500000000002
  2.7377600000000002  4.2911000000000001  3.7970799999999998
  3.3257099999999999  3.0448400000000002  3.1362199999999998
  5.5077999999999996  1.8006899999999999  2.4546399999999999
  4.1440900000000003  5.9424400000000004  1.1982699999999999
  4.1536900000000001 11.5226400000000009  2.7926500000000001
  6.6290899999999997  1.7160500000000001  3.4923999999999999
  7.4480700000000004  9.4031599999999997  3.7765000000000000
  9.0769199999999994  8.3048900000000003  0.3573300000000000
 11.4120799999999996  3.0582099999999999  0.2932400000000000
  0.8892800000000000  8.0738900000000005  3.6853099999999999
 11.0910799999999998 11.7186900000000005  5.5542699999999998
 10.1745800000000006  9.4244900000000005  6.0899799999999997
  6.2959899999999998  2.9076900000000001  5.5759299999999996
  3.7097099999999998 10.0447299999999995  2.4089000000000000
  1.9511900000000000  7.5920800000000002  6.9327800000000002
 11.1810500000000008  2.3164799999999999  4.4430300000000003
  0.3615000000000000  8.4163399999999999  1.1407700000000001
  6.0221000000000000  2.6537999999999999  1.3104800000000001
  8.9804899999999996  0.8151200000000000  6.5206900000000001
  0.7587500000000000 10.5259199999999993  7.6320300000000003
  0.1091600000000000  7.8500699999999997  5.0399399999999996
  9.8779699999999995  8.9522399999999998  3.7919700000000001
  1.1876100000000001  3.4863700000000000  2.2918300000000000
  9.3705200000000008  6.3648100000000003  1.8408599999999999
  9.0061199999999992 10.2641200000000001  5.6502400000000002
  8.0376499999999993 10.4707699999999999  6.8854199999999999
  0.7301600000000000  8.2672399999999993  6.4983599999999999
  2.9013000000000000  0.6011000000000000  3.0581600000000000
  8.6350400000000000  9.5535300000000003  4.2852600000000001
  7.9929100000000002  4.1764799999999997  6.7914700000000003
 11.3161100000000001  0.8625400000000000  4.3421300000000000
 11.3225200000000008  3.0722299999999998  5.5294100000000004
  2.4165800000000002  2.7535099999999999  1.9568600000000000
  0.7710100000000000  0.1341800000000000  7.3350200000000001
  7.8396100000000004  0.2050100000000000  7.1978099999999996
  8.5881900000000009  9.8201000000000001  0.3128300000000000
  9.4806699999999999  3.9001000000000001  6.8766299999999996
 10.3456100000000006  4.2123100000000004  5.6449999999999996
  6.2525500000000003  1.7627600000000001  4.9284299999999996
  9.7972800000000007  0.5660300000000000  3.9068800000000001
  6.9915700000000003  0.7804500000000000  0.3046500000000000
  5.9872300000000003  0.0960800000000000  0.9972000000000000
 11.5407499999999992  7.8458600000000001  7.6521699999999999
  8.8258700000000001  5.3479700000000001  1.1514400000000000
 10.3853200000000001  5.6872100000000003  5.6445499999999997
  3.0198900000000002  1.8497399999999999  3.9453900000000002
 11.4275199999999995  6.3638700000000004  5.1554599999999997
 10.2164400000000004  8.3883700000000001  7.0904299999999996
  1.4032199999999999  4.4272499999999999  3.2069700000000001
  5.1310000000000002  7.6326599999999996  5.8097000000000003
 10.8186699999999991  8.9819999999999993  4.8896899999999999
  9.1644100000000002  6.0263700000000000  6.4974100000000004
  6.7636200000000004  2.2365499999999998  0.2433800000000000
  9.0159000000000002  5.0776800000000000  7.6190899999999999
  4.6931700000000003  3.0212100000000000  2.6935400000000000
 11.3856000000000002  0.9352600000000000  6.9651699999999996
  5.1623400000000004  0.4614100000000000  2.0297299999999998
  0.3772300000000000  9.8060700000000001  0.9373200000000000
 11.6455599999999997  7.8829099999999999  2.5059700000000000
  9.9342400000000008  2.8534799999999998  7.7962199999999999
 11.4180299999999999 10.2148199999999996  5.7047299999999996
  0.1886500000000000  2.4333600000000000  6.8287699999999996
  9.0309899999999992  2.7850999999999999  1.0904000000000000
  1.8289100000000000  6.7079399999999998  0.1456300000000000
  9.5526099999999996  6.0847600000000002  3.1955600000000000
  2.0323300000000000 11.5248000000000008  3.8206300000000000
  9.8253799999999991 10.4445099999999993  0.4016900000000000
  1.5538700000000001  2.4986400000000000  6.8286199999999999
  2.7368800000000002  8.6206499999999995  7.5282600000000004
  2.5819999999999999  6.9350600000000000  5.8989700000000003
  3.6753900000000002  9.3099699999999999  3.4947400000000002
  4.8174000000000001  6.3757500000000000  5.5283199999999999
  4.2720700000000003  5.7893299999999996  7.6465399999999999
  9.7054399999999994 11.3687100000000001  2.9289200000000002
  9.8652700000000006  0.7684900000000000  0.9915000000000000
 10.7110900000000004  4.0520399999999999  2.2109700000000001
  7.9474400000000003 10.2762899999999995  1.4405200000000000
  6.3903600000000003 10.1602899999999998  4.1685999999999996
  8.3433499999999992  7.9087500000000004  5.7238100000000003
  2.0743000000000000  9.6839200000000005  5.5754500000000000
  6.4627600000000003  0.6096000000000000  5.5160700000000000
  9.2400500000000001  1.6496999999999999  3.4532200000000000
  6.8600599999999998  8.2958900000000000  1.5052200000000000
  7.3222600000000000  0.4827700000000000  3.3925100000000001
  2.7576600000000000  4.0806399999999998  5.1875299999999998
  5.5726899999999997  5.7251399999999997  3.1250000000000000
  1.5478799999999999  4.6816100000000000  7.5253199999999998
  6.8829799999999999  9.7752999999999997  6.5439900000000000
  5.9822400000000000 10.5740700000000007  0.4935400000000000
  3.8448699999999998  7.2557999999999998  1.6258100000000000
  6.2905300000000004  7.9712199999999998  5.2485400000000002
  5.6128799999999996  8.2382299999999997  3.1107300000000002
  4.7132800000000001  1.1381900000000000  6.9571399999999999
  6.8133200000000000  6.1594400000000000  6.6027300000000002
  0.0386100000000000 10.5515799999999995  2.0439500000000002
  3.2119800000000001  4.9378900000000003  1.5166500000000001
  4.5331400000000004 11.3449799999999996  4.1904500000000002
  2.5044499999999998 10.0838800000000006  1.7229000000000001
  6.4828200000000002  6.0267400000000002  1.1427900000000000
  4.2585699999999997 10.6163399999999992  6.5313100000000004
  0.8454800000000000  5.5845700000000003  5.3084400000000000
  0.0209500000000000  6.4753499999999997  2.2716599999999998
  1.2057500000000001  9.3502399999999994  3.5171999999999999
  3.4157799999999998  5.4803400000000000  3.6096599999999999
  0.8966000000000000  0.9316200000000000  1.6480900000000001
  2.9435199999999999  0.8605600000000000  0.6654600000000001
  8.5903500000000008  2.0193099999999999  5.7929899999999996
  7.5879300000000001  7.1776000000000000  3.3709799999999999
  5.8884499999999997  3.9640399999999998  4.8852799999999998
  1.8555800000000000  0.2098800000000000  6.4018300000000004
  3.7070200000000000  3.3476100000000000  7.3502099999999997
  7.5362499999999999  2.6928200000000002  3.2535400000000001
  9.3972200000000008  3.9733299999999998  4.5183900000000001
  5.0745500000000003  7.8300900000000002  7.2050500000000000
  8.0406200000000005  4.6022699999999999  2.0095000000000001
  5.8623399999999997  4.1544800000000004  7.3438499999999998
  7.5248400000000002  5.3548900000000001  4.6949699999999996
  1.7557799999999999  2.0129500000000000  4.4300499999999996
  4.4728800000000000  9.4590499999999995  1.5081500000000001
  1.9899100000000001  7.2712000000000003  3.3772500000000001
 11.3168100000000003  6.4522100000000000  0.0432300000000000
  3.8218200000000002  1.6838599999999999  4.9792199999999998
  4.2849599999999999  8.4872399999999999  5.2496999999999998
  2.8426499999999999  3.0935000000000001  0.9521100000000000
  0.2455500000000000  0.3683700000000000  3.6045300000000000
  3.9139900000000001  2.4050400000000001  7.0368899999999996
  2.2793600000000001  4.6689400000000001  6.9131900000000002
  3.3709600000000002 10.2249800000000004  6.4267899999999996
  0.7138000000000000  5.1078500000000000  3.4922599999999999
 10.8977699999999995  2.7757200000000002  3.5366800000000000
  4.3737500000000002  0.2312500000000000  6.6081000000000003
