Si  O  C  H  F 
 1.0000000000000000
    13.1111869999999993    0.0000000000000000    0.0000000000000000
     0.0000000000000000   13.1111869999999993    0.0000000000000000
     0.0000000000000000    0.0000000000000000   13.1111869999999993
 Si  O   C   H   F  
  18  36  18   6  18
Cartesian
  7.9184248193179192  8.2135354807818892 11.4441189775067595
  1.1211290780984500  9.5056333884653785 13.4138710764107802
 -1.8526286854261900  4.6822242278585096  3.3005516083741098
  0.5252228755991800  8.8944399352597205  3.0483612042258597
  8.7555406757410701  7.1984368341761806  8.4914922518462799
 -0.4228252918004000  0.9114105286705200 10.2660266430325002
 -1.8936349716636498  0.2717155838286500  2.6530149936994096
 -1.4212288084396598 10.5860288930159694  1.3176433510986798
 -1.9843782835618700  3.2874291457532898 11.9050518032107888
 -0.7517476067474500  5.3258582977226601 11.2250720807520690
  0.2000158777123200  5.8099550508351996  3.1139661750652396
 -0.7205935908692700 10.1178048051093707  9.1079328020893389
 11.3219852550287499  7.8782761358221292  7.2499820236361101
 11.4210390928069199  5.7505166645775292  8.1228307157734498
  1.2303037033456601  6.6556694859166896 11.8184545108657098
  5.7504766754571799  7.0071151156754290  8.0400024963552603
 -1.8557994948902699  2.4732517043222497  1.9302656614635998
 -3.8523412888557793  8.5934382863647798  0.9851394531988399
 -0.3092599922506299 10.4766928690567891 13.2374132483881901
  3.1321620114957098 -0.8878246832643499  3.5503566942714500
  8.4973284345155893  7.7881245317932200 10.0268945878006388
  2.8156827374591398  4.6958227576793004  7.3551025387510496
  6.0614040173585995  4.8257834654606997  3.3430395898544396
 -2.0171865379038398 -0.2553711781144500  4.1860544315326296
  3.1728782782767295 13.1016837494386600  6.8450274108285800
  8.6572394200966993 -1.8067266819629297  4.2460179208296500
  0.8382171961311500  8.0259420594164599 12.7205336766364585
  9.8242368059078196  5.8306368994327400  8.6135841496377594
 -0.5907815639484499  1.3197920124242399  2.2525141200039096
 -2.8027969317636696  9.8007971502366988  0.9681851150653999
  0.1635983758129900  1.7369513047625897 20.2758939944999774
 -2.0134940343090300 12.0505145229416399  1.7421353369905201
  7.5567959928400201  4.4521699651698396  1.4628545982628700
  8.9940911187176091  7.9541765351413902 -0.4915423339860999
 11.8250094488063588  4.4401691645968695  7.2944621188692196
 -0.0003558376151800  7.3938400651900302  2.9027621281502096
  5.7648701365457793 13.7793510518461897 16.2769536393360603
 -0.9631831972249000  9.2070793359595999  7.7619993116888901
  1.9125125898181197 -6.4339480381258696  9.0183743481603109
  8.2479177331232094  3.4698974041204198 11.2086004965239692
  8.0599663763526799 -0.7848904585816600 12.0649602976663690
  7.3810664912552797  6.7972005540018490  7.7521504502382292
 16.6008446673837291  3.3347272284083096  3.2682305657410602
  4.2693146645624696 -2.6830179784708599  9.6236328914585485
  3.9732531798172599 -5.6289354475196998  0.2526597846428500
 -0.8154410976341000  9.9143494697113397  2.7089618708589800
 -1.0714261415238899  2.1555132318862000 11.1034275366610302
  9.6444100583855796  8.2891255383048588  7.5762777744914498
  2.4925162336050897 -13.3142982978511508 -1.5491829801625798
  1.5688249805191499  9.2410965728548398 14.9760199716213993
 -1.8248513246479900  3.1538618126519298 13.5469826646520186
  8.7491729655507786 -0.5845811525042799  7.7101612183113799
  5.0320275503336296  2.8571088439043399  9.2731298249332390
 -0.8632328164796700  5.7396872174511397  9.5527077942701801
  5.9632560314902596 13.0658742132805195 15.2903010240455490
  4.9475389301937600 -5.9140333576955095  0.8917698394326500
  1.9864127464486598 -5.8836015059972899 10.0722332035585094
  8.0502956959333485 -0.9644906447925400  8.5414799634024803
 16.2777838396969017  2.5018997790291198  3.9505510284148899
  6.7414694869803000  4.5733527332547395  2.3592831046603600
  3.8537773571678899 13.0215640390309293  7.8618058627127301
 -2.8474184967045102  6.0712568121653598  2.5878704877474696
  9.2572133683627200 -0.6252572990530800 11.9675287070557097
  3.9496779544725595 -3.4426818577051703 10.4239091968728399
 -3.9633678692667402  2.7031254259659301 11.3173286858538287
 -3.2496866272957399  7.0601320358761095  1.9654910942408896
  8.3910516438191198 10.4484567478454586  5.0528204506850605
  2.8080823134671098  3.6044817719973699  6.9822013692498999
  2.1441314104514997 -0.1641710724611500  3.5153343537807902
  3.2781567831950196 -12.6643237890656692 -0.9709246975890499
 -0.5656194916411400  1.0683561570878399 19.7111977926473791
  5.7498142982899392  2.0904355929879599  9.9072088550474007
 -1.5102756638519499  0.2381165937987100  4.9336356963870891
  5.0690625891406595  6.0638855717220901  7.3321740882610600
  2.3062374709601499 10.2036128039970500 12.7848142864769692
 -1.3778143904859099  0.6252149499190700  9.2087173165515086
  4.3356222639131792  2.0458858773518798 -0.2951766107345800
 11.2540555396223994  4.1795006735988096  6.5598600113616694
 -0.2944625754905600 11.5338549569077689  8.6215742381074296
 -1.9760774599602997 10.2949315658926999 10.1397668300055894
  5.4360869312927997  8.5533309031080389  7.5935870324569787
  7.9152010406583599  9.0938922941547791  1.7447553454887299
  1.1031662274609699  9.3478975488075697  4.4378783780042301
  0.6004873823489399  5.0500432390547196 14.7955814561137391
  2.5494935189509897  5.8511271935882094 12.2827487826927992
  0.4708250851836600  9.6501692783871995  9.9521033949015809
  0.9914094850459799  1.4081473838341498  9.7573740788995291
  5.3822129327979304  6.7176656025343195  9.5353923740467597
 -0.2501480745492600 -0.4051847141393800 11.1306168607022791
  4.8500722016019395  2.8164559041565296  0.0762839015390100
 -2.7186674270357298  4.1617691043000100  4.6448029334824597
 -1.9073499288249998  6.4509280741858293 11.8998525620059397
  7.3678451702844789  9.7070008984455285 11.5295839877425195
  1.4870352982232300  5.6064710019376403  4.1076744445279303
  6.6484305373502490  7.3760998425078101 11.8266491338525785
 11.4650677698716201  7.8550185945384401  5.6681570389827201
