C  F 
 1.0000000000000000
    12.7130018719999995    0.0000000000000000    0.0000000000000000
     0.0000000000000000   12.7130018719999995    0.0000000000000000
     0.0000000000000000    0.0000000000000000    8.4753345810000003
 C   F  
 120  24
Cartesian
  3.6047400000000001  0.0127100000000000  3.3650600000000002
  2.7820999999999998  5.2538999999999998  3.3508700000000000
  2.8983699999999999  2.6904800000000000  2.4303599999999999
  8.4701100000000000  1.5979900000000000  1.0942200000000000
  8.2067099999999993  2.2781199999999999  8.3806600000000007
  1.1422200000000000  6.8998299999999997  6.2566100000000002
  2.3574500000000000  6.5660299999999996  5.7143600000000001
  7.6426900000000000  9.1794300000000000  2.7297500000000001
  4.0646800000000001  2.0600299999999998  1.6852400000000001
  9.0957200000000000  8.1811500000000006  6.4646600000000003
  9.9139800000000005  3.0125899999999999  2.5697500000000000
 10.1877399999999998  8.9882899999999992  3.4111500000000001
  1.7907500000000001 11.1978600000000004  4.4522599999999999
  9.5642899999999997  1.8125199999999999  1.9780100000000000
 11.0580800000000004 10.2759599999999995  3.4287999999999998
  4.7434399999999997  7.7831799999999998  6.4264700000000001
  5.2724500000000001  8.3198799999999995  5.2646499999999996
  5.7522099999999998  7.7941200000000004  2.9406900000000000
  3.6137400000000000  7.5174899999999996  0.6770200000000000
 12.0683199999999999 10.6597899999999992  4.4303999999999997
  1.3082199999999999  7.4374200000000004  7.5885899999999999
  9.4081100000000006  6.8739100000000004  0.1555000000000000
  1.1349700000000000 10.7195499999999999  0.7310800000000000
  8.4827899999999996  5.8190700000000000  0.5863000000000000
  3.3824900000000002 11.5138400000000001  1.3135699999999999
  6.7810100000000002  2.4557799999999999  8.0101800000000001
  5.7546299999999997  1.5237099999999999  0.0994700000000000
  5.9492599999999998  8.1351300000000002  1.4089900000000000
  9.2350700000000003  3.1660300000000001  7.7173800000000004
  7.5293099999999997  0.6286900000000000  1.6548400000000001
  8.5833700000000004  7.9454599999999997  7.9306000000000001
  4.9968199999999996  7.7112499999999997  0.4317700000000000
  7.3268599999999999  9.7218199999999992  5.7167899999999996
 10.2918099999999999  0.6039900000000000  2.2477900000000002
  0.2951000000000000 10.5318400000000008  8.0544899999999995
  8.8039799999999993  3.5406499999999999  6.5184400000000000
  0.5457700000000000 10.6149400000000007  6.6289400000000001
  4.6233000000000004  7.8749000000000002  3.9709900000000000
  7.2728099999999998  7.2161999999999997  7.3966900000000004
  5.1262200000000000  1.1415100000000000  2.2750900000000001
  6.0109100000000000  3.7139799999999998  7.8443899999999998
  3.1577400000000000  7.1566099999999997  2.0830099999999998
  8.0456000000000003 12.4822399999999991  2.5539900000000002
  2.5516200000000002 10.7618600000000004  0.4791000000000000
  8.3418100000000006  9.0129800000000007  0.4657400000000000
  0.3157300000000000 11.0137900000000002  2.1187000000000000
 11.3881499999999996  7.6082500000000000  7.4725400000000004
  2.4912800000000002  3.8388499999999999  3.1093199999999999
  3.9342000000000001 11.2534399999999994  5.4400199999999996
 10.7404499999999992  6.8677400000000004  0.0257300000000000
 11.1870799999999999  2.9405299999999999  3.2321200000000001
  5.5187400000000002  0.3458300000000000  5.1493900000000004
 10.7227399999999999 10.2366499999999991  0.8884600000000000
  3.0422400000000001 10.7728900000000003  6.4286500000000002
  2.1040600000000000  5.7218000000000000  4.6692200000000001
 10.4989600000000003  5.1647999999999996  3.5030500000000000
 10.6814099999999996  6.4970400000000001  4.0030700000000001
  5.2764400000000000 11.6559299999999997  5.6307600000000004
  4.6578700000000000  3.4518399999999998  7.9698599999999997
  6.1230000000000002  0.8867500000000000  1.3232999999999999
 10.0404300000000006  7.6575800000000003  3.4147900000000000
 11.7695399999999992  0.7131400000000000  2.3106900000000001
  9.5488700000000009  4.5006199999999996  2.5775800000000002
  7.2281899999999997  8.8066499999999994  1.3507499999999999
  9.3963000000000001  9.7199399999999994  1.1605799999999999
 12.0349599999999999 10.4995200000000004  5.8852900000000004
  8.2210900000000002  1.3548300000000000  5.5572400000000002
  1.1254100000000000  3.6065200000000002  3.4713699999999998
  8.9124400000000001 11.8701600000000003  6.1409300000000000
  8.2397299999999998  2.8038799999999999  5.5867399999999998
 10.5747800000000005  7.6390900000000004  6.2569900000000001
  3.2936899999999998  8.2824899999999992  3.1455899999999999
  6.0660699999999999  1.4185099999999999  7.0394699999999997
  3.0945399999999998 11.7894699999999997  4.3528399999999996
 12.6826399999999992  7.7943100000000003  7.9474900000000002
  1.6999800000000000 10.7774099999999997  5.8738400000000004
  9.5419000000000000 10.6567500000000006  6.4999500000000001
  3.6824699999999999  4.3905099999999999  7.5013600000000000
  0.1884900000000000  4.4796899999999997  3.9653100000000001
 12.1369000000000007  1.9412000000000000  2.9732099999999999
 11.2611100000000004  6.8466300000000002  5.3017500000000002
  9.0359300000000005  9.7969000000000008  2.6635499999999999
  8.7342399999999998  9.5922699999999992  6.0880500000000000
  1.5156099999999999  0.3744300000000000  2.1796600000000002
  0.7387800000000000  2.3594100000000000  2.9804200000000001
  0.6979100000000000  5.6167299999999996  4.5432399999999999
  6.6308699999999998 10.9361599999999992  5.9668799999999997
 12.6684400000000004  6.4713500000000002  5.4075300000000004
  5.0960700000000001  1.6262700000000001  5.9622000000000002
  3.3316699999999999 10.4088799999999999  7.7371699999999999
  5.3973199999999997  5.9350600000000000  7.3658599999999996
  9.4765700000000006 12.2701499999999992  2.6634400000000000
  1.8025000000000000  1.7534200000000000  2.3947900000000000
  7.6949500000000004  7.4317599999999997  5.8819499999999998
  4.0332100000000004  5.9808300000000001  2.7616800000000001
  4.5165899999999999  2.3208700000000002  0.3819700000000000
  5.7279700000000000  7.3996700000000004  7.5895200000000003
  7.5346500000000001 11.9447700000000001  6.1877599999999999
  8.5630900000000008  4.8358400000000001  1.6146000000000000
  5.0125099999999998  6.5403200000000004  3.5856599999999998
  9.3012400000000000  0.5061400000000000  5.7257800000000003
  2.0035699999999999  6.0933599999999997  2.2507999999999999
 11.5815599999999996 10.3594799999999996  2.0190899999999998
  6.9619600000000004  0.5778500000000000  5.8071299999999999
  7.5257899999999998  5.8249399999999998  8.0782200000000000
  2.7236300000000000  7.4690300000000001  7.9693600000000000
  9.7636699999999994 10.9809099999999997  3.2168199999999998
  6.8479700000000001  8.4879700000000007  3.6133099999999998
  0.5340400000000000 10.8178400000000003  3.7028300000000001
  6.8226699999999996  8.4779699999999991  5.1010799999999996
  4.1004100000000001  5.6432700000000002  6.9991700000000003
 11.5373300000000008 10.4366500000000002  8.1926500000000004
 10.9364799999999995 10.5057399999999994  6.8845799999999997
  6.3819900000000001  5.0307800000000000  7.7015099999999999
  3.4243299999999999  6.9585200000000000  6.6472300000000004
  0.2475700000000000 12.6039399999999997  2.0225000000000000
  2.8253499999999998 12.4421499999999998  2.1052599999999999
  4.9016200000000003  0.5106900000000000  3.5983399999999999
  0.6538000000000000  1.8204300000000000  7.5481900000000000
 11.5531500000000005  4.1791200000000002  3.7721600000000000
  7.5572800000000004  3.2956400000000001  4.5028199999999998
  0.6690900000000000  6.5467100000000000  2.4350399999999999
 10.4650300000000005  3.2725300000000002  8.3240599999999993
  7.4873799999999999  4.0090599999999998  1.7243400000000000
 11.3907900000000009  5.8496899999999998  0.6650300000000000
 12.5854400000000002  8.2067300000000003  0.8155100000000000
  8.9639399999999991  7.1922499999999996  2.6860499999999998
  4.5994500000000000 10.0450300000000006  8.0118100000000005
  5.3015499999999998  2.7205499999999998  5.2126900000000003
  1.7607200000000001  1.1992400000000001  8.1138300000000001
  0.3682900000000000  3.0412200000000000  8.1163600000000002
  7.2082100000000002 11.7463400000000000  3.3158099999999999
  4.5175500000000000  5.0078899999999997  1.7746200000000001
  2.0049299999999999  8.3141499999999997  3.7261700000000002
  2.4492799999999999  3.9045600000000000  7.3853499999999999
  4.8018299999999998 11.3333800000000000  1.4958899999999999
 12.2619100000000003  0.9839200000000000  7.7050799999999997
  0.9919400000000000  2.0327700000000002  6.2877599999999996
  7.9946400000000004  6.1467599999999996  5.2481400000000002
  3.4680800000000001  9.5535599999999992  2.5738300000000001
 10.6388900000000000  0.9647400000000000  5.6797599999999999
  3.7099500000000001  1.5128800000000000  6.2372600000000000
  1.7999200000000000  5.3881600000000001  1.0325100000000000
  5.4716899999999997  5.5537799999999997  4.4599099999999998
