 H  O Si 
 1.0000000000000000
     9.9854713620000002    0.0000000000000000    0.0000000000000000
    -4.9927356810000001    8.6476718679999998    0.0000000000000000
     0.0000000000000000    0.0000000000000000   27.4653860129999998
 H   O   Si 
  16  48  20
Selective dynamics
Cartesian
  1.1198300000000001  2.2737300000000000  2.7103700000000002   F   F   F
  6.4712100000000001  1.7620199999999999 12.0503099999999996   T   T   T
  3.8013800000000000  6.3299399999999997 11.6442599999999992   T   T   T
 -1.3765200000000000  6.5975400000000004  2.7103799999999998   F   F   F
  4.6826299999999996  8.2705000000000002 11.9142399999999995   T   T   T
  6.1125499999999997  2.2737500000000002  2.7103600000000001   F   F   F
  6.8444799999999999  4.1735899999999999 12.0598399999999994   T   T   T
 -0.5622400000000000  8.4411900000000006 12.1269899999999993   T   T   T
  3.6162299999999998  6.5975200000000003  2.7103899999999999   F   F   F
  1.8582000000000001  3.9371000000000000 11.8970500000000001   T   T   T
 -1.0768100000000000  6.1154700000000002 12.2462400000000002   T   T   T
  1.1796500000000001  1.5888000000000000 11.8094199999999994   T   T   T
  0.3912100000000000  7.7695699999999999  2.0178300000000000   F   F   F
  5.3838900000000001  7.7696100000000001  2.0179000000000000   F   F   F
  2.8875999999999999  3.4457300000000002  2.0178099999999999   F   F   F
  7.8803700000000001  3.4457000000000000  2.0177499999999999   F   F   F
  6.6979400000000000  0.7664900000000000 12.1261200000000002   T   T   T
  3.7317200000000001  5.2597600000000000 11.4190699999999996   T   T   T
  5.2592100000000004  6.8588399999999998  2.3419699999999999   F   F   F
  0.2664700000000000  1.7888299999999999  2.8051300000000001   F   F   F
 -2.2299000000000002  6.1126699999999996  2.8051300000000001   F   F   F
  5.2592100000000004  1.7888299999999999  2.8051300000000001   F   F   F
  7.7555699999999996  2.5350100000000002  2.3419699999999999   F   F   F
  1.0261100000000001  3.6425600000000000  6.1805199999999996   T   T   T
  0.2664700000000000  6.8588399999999998  2.3419699999999999   F   F   F
  2.7628400000000002  6.1126699999999996  2.8051300000000001   F   F   F
  2.7628400000000002  2.5350100000000002  2.3419699999999999   F   F   F
  3.4486200000000000  7.9213199999999997  6.5039699999999998   T   T   T
  5.6878900000000003  3.5937000000000001  6.4560800000000000   T   T   T
 -3.5710799999999998  7.5877299999999996  4.6280900000000003   T   T   T
  3.8855000000000000  3.2909999999999999  4.5639200000000004   T   T   T
  1.4709700000000001  7.3962399999999997  4.6888399999999999   T   T   T
 -1.5299799999999999  7.9154600000000004  6.4082800000000004   T   T   T
 -1.1797200000000001  3.1394099999999998  4.7444800000000003   T   T   T
  1.4926600000000001  1.0665400000000000  6.1827600000000000   T   T   T
  1.2955500000000000  0.5545500000000000 11.8898100000000007   T   T   T
 -0.8276400000000000  5.4585100000000004  6.0041500000000001   T   T   T
  6.3210199999999999  0.9294100000000000  6.1515800000000000   T   T   T
  3.8531800000000000  5.4077799999999998  5.9523400000000004   T   T   T
  2.6719300000000001  2.6660800000000000  7.9355900000000004   T   T   T
 -1.1561900000000001  5.1258400000000002 12.0396800000000006   T   T   T
  7.6127000000000002  2.5800299999999998  7.8302300000000002   T   T   T
  5.3603500000000004  6.6460900000000001  7.8015699999999999   T   T   T
  0.1519900000000000  2.0777899999999998  8.1972199999999997   T   T   T
 -2.2308300000000001  5.8805800000000001  8.1503700000000006   T   T   T
  5.0133400000000004  1.6756300000000000  8.2202800000000007   T   T   T
  2.7762799999999999  6.1236600000000001  8.3411899999999992   T   T   T
 -1.1707900000000000  3.3439399999999999 10.1702999999999992   T   T   T
 -3.2869100000000002  7.2919299999999998 10.1936099999999996   T   T   T
  3.9552600000000000  3.1108899999999999 10.3149400000000000   T   T   T
  0.1905400000000000  6.8670999999999998  8.1349999999999998   T   T   T
  1.0159499999999999  3.3953099999999998 11.7148500000000002   T   T   T
  1.6398699999999999  7.6608099999999997 10.2100200000000001   T   T   T
  5.8760399999999997  5.0108699999999997  4.2556200000000004   T   T   T
  8.2405000000000008  0.6259400000000001  4.1752500000000001   T   T   T
  3.2810800000000002  0.7031500000000001  4.1644600000000001   T   T   T
  5.8830900000000002  4.8250900000000003  9.7038399999999996   T   T   T
  0.5216800000000000  5.0060000000000002  3.8695599999999999   T   T   T
  0.7227200000000000  5.2039000000000000  9.9872499999999995   T   T   T
  3.0585800000000001  0.8141699999999999  9.8091500000000007   T   T   T
  3.7630800000000000  7.8488499999999997 11.9746900000000007   T   T   T
  5.9626999999999999  3.6493300000000000 12.0323300000000000   T   T   T
 -1.3369500000000001  7.8489199999999997 11.8405299999999993   T   T   T
  8.3768499999999992  0.9258200000000000  9.9388500000000004   T   T   T
 -1.1103200000000000  6.5323900000000004  7.2038399999999996   T   T   T
  3.8097799999999999  2.0489299999999999  3.4890599999999998   F   F   F
  1.3041900000000000  2.3816600000000001  7.1237800000000000   T   T   T
  4.8224200000000002  4.3413599999999999  5.2988999999999997   T   T   T
  2.3658700000000001  8.5903200000000002  5.4035599999999997   T   T   T
 -0.1367900000000000  4.3124300000000000  5.1859799999999998   T   T   T
 -2.5793300000000001  8.5935100000000002  5.3706300000000002   T   T   T
  1.3134200000000000  6.3727700000000000  3.4890599999999998   F   F   F
 -3.6793200000000001  6.3727700000000000  3.4890599999999998   F   F   F
  4.8946100000000001  4.2565299999999997 10.8830799999999996   T   T   T
  1.4211700000000000  6.4176099999999998  9.1374499999999994   T   T   T
  3.6581100000000002  2.0908099999999998  9.0636399999999995   T   T   T
 -3.5686399999999998  6.1933499999999997  9.0184899999999999   T   T   T
 -1.2658799999999999  2.2112400000000001  8.9860699999999998   T   T   T
  7.6381699999999997  0.0206200000000000 11.0181100000000001   T   T   T
 -0.1634300000000000  4.3653899999999997 10.9953699999999994   T   T   T
 -2.5446599999999999  8.4937699999999996 10.9507600000000007   T   T   T
  6.1542399999999997  2.1906500000000002  7.1785500000000004   T   T   T
 -1.1829499999999999  2.0489299999999999  3.4890599999999998   F   F   F
  3.8998400000000002  6.5303800000000001  7.1647299999999996   T   T   T
