C  F  H 
 1.0000000000000000
    12.9339157670000002    0.0000000000000000    0.0000000000000000
     0.0000000000000000   12.9339157670000002    0.0000000000000000
     0.0000000000000000    0.0000000000000000    8.6226105119999996
 C   F   H  
  85  51   8
Cartesian
  5.2578300000000002  0.5925500000000000  5.4307900000000000
  8.9807900000000007  0.7825900000000000  5.2670700000000004
 12.9213100000000001  6.6666699999999999  4.2633200000000002
  9.0139600000000009  7.4661200000000001  0.9836200000000000
  0.0547100000000000  6.6446600000000000  2.9047999999999998
  1.4306399999999999 11.8610399999999991  1.3465600000000000
 11.7653800000000004  5.6885700000000003  7.6588000000000003
 10.1285500000000006  7.2842700000000002  8.5341100000000001
  2.4090900000000000 11.0670500000000001  3.8768500000000001
  3.9822600000000001  6.2744099999999996  6.4261100000000004
 10.7892899999999994  1.8289899999999999  3.4285000000000001
 10.1426800000000004  8.5066600000000001  5.8593700000000002
 12.5745100000000001  4.7557200000000002  8.3185199999999995
  7.6235499999999998  7.5501899999999997  3.5937000000000001
  4.8491000000000000  6.4759200000000003  3.5529600000000001
  7.2206200000000003 10.5537299999999998  0.7435600000000000
  1.7027600000000001 11.7414000000000005  2.8408000000000002
  9.9698100000000007  0.6206600000000000  3.9889199999999998
  3.1432899999999999  1.4332900000000000  4.0271900000000000
  4.4935799999999997  0.8201700000000000  4.1419600000000001
  8.5065200000000001  1.9835100000000001  7.4457300000000002
  6.4398600000000004 12.8946500000000004  4.5494399999999997
 10.8737700000000004  8.5131200000000007  8.2419799999999999
  6.9847099999999998  6.9616300000000004  2.3287900000000001
  1.9975200000000000  1.4290099999999999  1.3289599999999999
  3.2714699999999999  5.3841299999999999  5.4799699999999998
  1.4237700000000000  6.6370399999999998  2.3619900000000000
  0.9653400000000000  5.5407999999999999  6.8113700000000001
  2.7700700000000000 11.7727400000000006  4.9397200000000003
  8.4943200000000001  1.0800099999999999  1.9633499999999999
  1.3641700000000001  6.3531599999999999  4.5822099999999999
  1.9300700000000000  7.0846400000000003  1.1419800000000000
  9.4601699999999997  1.7983600000000000  8.3848400000000005
 11.1951599999999996  8.8582999999999998  3.3835199999999999
 10.8677299999999999 12.2340999999999998  3.9013300000000002
  1.9894000000000001  2.6507499999999999  0.5294600000000000
 11.0540800000000008  9.2140199999999997  0.8292500000000000
  4.7992900000000001 12.7613199999999996  7.7008200000000002
  8.6866599999999998  0.5488700000000000  3.2080199999999999
  4.5212000000000003 12.5734700000000004  6.4071199999999999
 10.7276000000000007  1.9847200000000000  1.9054599999999999
 10.2589699999999997  8.3277099999999997  4.4164199999999996
 12.5639199999999995  6.1415100000000002  6.5767400000000000
 12.0552100000000006  3.8166000000000002  0.5430800000000000
  1.6709700000000001  0.1416800000000000  3.3009300000000001
  5.4231299999999996  0.1323400000000000  3.4917500000000001
 10.4655299999999993  6.0427900000000001  8.1639599999999994
  2.2808099999999998  0.2315300000000000  4.7313200000000002
  1.8726200000000000  5.8090400000000004  5.7504499999999998
  3.6739999999999999 11.4585899999999992  5.9335699999999996
 10.6088500000000003  7.1367200000000004  5.3380500000000000
  9.4887400000000000  5.3249100000000000  3.9482599999999999
 10.7550799999999995  8.7773000000000003  2.1267200000000002
  9.4212000000000007  8.1848899999999993  2.1198700000000001
  6.6457699999999997 11.3264899999999997  4.6410700000000000
  7.7241000000000000  6.9287299999999998  1.1912600000000000
  5.6135400000000004  6.4504299999999999  2.3776099999999998
  9.2964300000000009  1.8759399999999999  6.2568400000000004
  9.6884700000000006  6.0025399999999998  5.0671900000000001
 10.5537500000000009  1.7605599999999999  7.3168199999999999
  9.8967200000000002 10.2404200000000003  6.9157500000000001
  0.9050400000000000  4.6381699999999997  7.8084400000000000
  4.1336199999999996 10.1543899999999994  6.2821499999999997
  9.5813699999999997  1.6723699999999999  1.1957100000000001
  1.3889100000000001  0.1800700000000000  0.7308100000000000
 11.6016700000000004  2.9083899999999998  1.2515300000000000
  5.6692000000000000  8.2091999999999992  6.7074100000000003
  6.8124900000000004  7.4474099999999996  4.7023299999999999
  9.0506399999999996  9.4410799999999995  6.1492000000000004
  5.5046600000000003  7.0276800000000001  4.6694100000000001
  6.5970199999999997 10.2647099999999991  5.8003900000000002
 12.0422899999999995  6.7808000000000002  5.4317700000000002
 10.9261900000000001  9.1826799999999995  6.9584799999999998
  4.9969700000000001  3.3548499999999999  1.1202799999999999
  4.8338500000000000  7.2033600000000000  6.0073400000000001
  2.2474500000000002  1.3498000000000001  2.7766700000000002
  7.6185900000000002  9.3298900000000007  6.0187799999999996
  7.0288899999999996  7.9564700000000004  6.0803200000000004
  8.8707300000000000  8.1162600000000005  3.4211900000000002
  1.6045499999999999  3.5958500000000000  8.4462299999999999
  7.7385799999999998  0.8311900000000000  4.3248499999999996
  5.3794199999999996  9.6488499999999995  6.2577600000000002
  2.2311100000000001  6.3668500000000003  3.4663800000000000
  3.5969500000000001  5.6948200000000000  3.8927200000000002
  1.5401600000000000 10.6047700000000003  0.4930500000000000
  5.3883500000000000  1.9324800000000000  6.0888499999999999
 11.4012200000000004  2.8400200000000000  7.0159000000000002
 12.4126300000000001  9.4651099999999992  3.6666300000000001
  2.8178899999999998  9.7313600000000005  3.6263000000000001
  3.0461200000000002  9.1959099999999996  6.2993399999999999
 10.2498600000000000  5.7182300000000001  2.9097400000000002
  5.4899800000000001  0.7934700000000000  8.3204700000000003
  6.0100600000000002 10.0467099999999991  0.9896900000000000
  7.8461499999999997 11.1446400000000008  3.9948999999999999
 11.5025700000000004 12.4001999999999999  2.7102499999999998
  9.7057400000000005 11.2403800000000000  7.7666599999999999
  7.7843600000000004  9.5281900000000004  0.0379200000000000
  7.1121600000000003 11.6205200000000008  8.6120099999999997
  4.2803699999999996 11.9883400000000009  0.0544100000000000
  8.0142299999999995 10.7564499999999992  1.7803500000000001
  5.6570499999999999 10.7495799999999999  3.7362400000000000
  4.8081600000000000  2.1818100000000000  1.7894600000000001
  9.7533600000000007  4.9824500000000000  0.1404700000000000
  1.3517999999999999  0.5922300000000000  5.6907300000000003
  0.7966600000000000  4.1557700000000004  2.8121000000000000
  8.8770600000000002 12.5407799999999998  5.9341900000000001
  2.5432600000000001  2.9909300000000001  6.2464599999999999
  7.1999800000000000  2.1788200000000000  4.3719999999999999
  0.6348700000000000  3.4945700000000000  5.0321400000000001
 12.0804700000000000  1.5419200000000000  3.8937700000000000
 10.4442900000000005  3.0813500000000000  3.8727900000000002
  3.0681600000000002  7.5551000000000004  1.0817800000000000
 11.8701799999999995 12.2111900000000002  4.8512100000000000
  6.2627899999999999  3.8920800000000000  1.5040000000000000
  5.0113700000000003  6.1115800000000000  1.2371300000000001
  6.5353199999999996  4.5921099999999999  5.9807800000000002
 11.3983399999999993 10.5200200000000006  0.7162400000000000
  3.6750400000000001  6.2120600000000001  7.8405100000000001
 12.2332400000000003  9.4185099999999995  6.5930499999999999
  1.2630399999999999  0.2950400000000000  8.0339200000000002
  8.9337300000000006  5.5598999999999998  6.1844099999999997
  7.2769599999999999  1.5734500000000000  1.5622600000000000
  8.5222800000000003  4.4317599999999997  3.6140900000000000
  5.0343099999999996  3.1473700000000000  8.3514499999999998
  1.1659999999999999 10.8077600000000000  7.8360000000000003
 11.3885100000000001  0.6707500000000000  7.3527199999999997
  5.5566100000000000 12.5447000000000006  2.2251699999999999
  1.2172300000000000  7.2903599999999997  0.0564900000000000
  7.2531999999999996  6.1638599999999997  0.1849500000000000
  2.8663799999999999 10.1569900000000004  0.6280900000000000
  5.7073700000000001  8.0269300000000001  8.1228400000000001
  3.5257900000000002  4.4508599999999996  3.1949800000000002
  0.7138600000000001  9.4966100000000004  1.0851700000000000
  7.1772600000000004  2.2524500000000001  7.4845600000000001
 10.1324699999999996 11.1370299999999993  4.0202200000000001
 11.9714600000000004  6.5472599999999996  2.0366100000000000
  4.0907000000000000  3.9253000000000000  1.3509800000000001
  1.6319399999999999  3.1063299999999998  5.7554699999999999
  0.5373700000000000  3.8299699999999999  3.7922099999999999
  9.3939299999999992  2.7357900000000002  5.5562300000000002
  3.3170899999999999  4.2869299999999999  5.5983499999999999
  7.4759599999999997  7.2122200000000003  6.7981800000000003
  6.7726199999999999  4.1285600000000002  6.7517800000000001
  3.0764000000000000  2.3927200000000002  4.5317200000000000
