chf_slab_anneal_475
 1.0000000000000000
    11.0399999999999991    0.0000000000000000    0.0000000000000000
     0.0000000000000000   11.0399999999999991    0.0000000000000000
     0.0000000000000000    0.0000000000000000   30.3599999999999994
 C   F   H  
  97  38   9
Cartesian
  1.5313500000000000  0.4597000000000000  7.0265599999999999
  7.3275600000000001  0.3551000000000000  9.8263200000000008
  3.3898299999999999  9.3741500000000002 10.1461000000000006
  5.6831899999999997  3.0811899999999999  3.2497600000000002
  3.3163399999999998  7.8878700000000004  9.9612700000000007
  6.3536700000000002  7.5945299999999998  6.0987200000000001
  5.2155600000000000  6.3315200000000003  3.9062000000000001
  5.5256299999999996  1.4393100000000001  9.2004300000000008
  6.9957599999999998  5.9642499999999998  9.6073599999999999
  7.7084299999999999  9.1789299999999994  9.0581200000000006
  6.6998899999999999  9.0834899999999994  5.8830799999999996
  2.2747700000000002  0.0685400000000000  8.6091899999999999
  7.1696600000000004  6.1866800000000000  8.1801800000000000
  3.2349700000000001  2.3432700000000000  8.1134000000000004
  4.2279600000000004  8.3589800000000007  4.4950400000000004
  4.5091900000000003  3.3228300000000002  8.5201399999999996
  1.7970900000000001  5.9921499999999996  7.3656199999999998
  1.5429400000000000  6.2544199999999996  5.8002099999999999
  7.1434899999999999  0.9564700000000000  4.4954700000000001
  5.7518099999999999  2.4674700000000001  8.0747400000000003
  6.6566400000000003  6.2496000000000000  3.9568800000000000
  5.8020899999999997  0.0421200000000000  5.9975100000000001
  4.5269399999999997  4.9829699999999999  4.1848200000000002
  1.5587299999999999  1.9255300000000000  6.1675500000000003
  0.5738400000000000  2.6506699999999999  8.3637700000000006
  3.7266599999999999 10.4502199999999998  3.4785300000000001
  0.4084400000000000  2.7519100000000001  6.8958100000000000
  0.7699400000000000  9.1070899999999995 11.1481999999999992
  5.9692699999999999  9.9879499999999997  4.9298599999999997
  5.9891100000000002  4.7437600000000000  6.7444199999999999
  7.9771099999999997 10.1748799999999999  7.8183299999999996
  6.0033599999999998  2.4769100000000002  6.4965000000000002
  4.9280799999999996  5.6351399999999998  7.3094099999999997
  2.2507899999999998  5.4037800000000002  4.8195800000000002
  8.0257500000000004  4.0076900000000002  8.3908799999999992
  4.8868200000000002  7.2599499999999999  5.2507700000000002
  9.4628800000000002  3.8563999999999998  7.9163600000000001
  3.6437100000000000  7.6055000000000001  3.2645700000000000
  9.9339499999999994  2.7194799999999999  6.8607699999999996
  3.9806900000000001  4.4673299999999996  7.5805600000000002
  9.9506499999999996  0.1851100000000000  6.8788200000000002
  4.8944799999999997  9.6780899999999992  3.9792600000000000
  7.2762799999999999  2.5507100000000000  8.5996900000000007
  5.8591100000000003  9.5638600000000000 10.5428899999999999
  4.3337599999999998  3.9974300000000000  9.8978900000000003
  7.2350000000000003  6.6352099999999998  5.3633800000000003
  3.5545000000000000  5.1997099999999996  5.3291800000000000
  7.7445599999999999  4.7288300000000003  9.7330000000000005
  6.4206399999999997  7.2893699999999999  7.6647600000000002
  0.2254300000000000 10.9267400000000006  6.7607499999999998
  2.0476899999999998  7.5015499999999999  9.4275199999999995
  0.0135500000000000  6.6296299999999997  5.7344900000000001
  7.2409600000000003 10.5811499999999992  4.3454600000000001
  2.4408400000000001  6.1316600000000001  3.4226999999999999
  2.0752199999999998 10.0566300000000002  9.6751199999999997
  6.3426499999999999  1.2845599999999999  5.6075699999999999
  8.0797600000000003  1.5289999999999999  7.8893500000000003
  6.7159100000000000  1.7104100000000000  9.8606900000000000
  2.6000500000000000  4.9384899999999998  7.9774900000000004
  1.9525100000000000  2.8644599999999998  8.9064800000000002
  3.1345000000000001  4.5939800000000002 10.1142599999999998
  8.9291699999999992 10.1423199999999998  6.6256700000000004
  0.8841300000000000  6.4039099999999998  9.6455199999999994
  4.9141000000000004  6.8407299999999998  8.1938499999999994
  4.4724199999999996  0.4324300000000000  9.3892299999999995
  7.0138900000000000 10.1200899999999994 10.0972299999999997
  4.6291799999999999  7.2100700000000000  9.6515100000000000
  7.2649900000000001  4.9276600000000004  7.4578600000000002
  1.9540200000000001  4.3452700000000002  9.1322200000000002
  1.2150600000000000 10.5411800000000007 11.0571800000000007
 10.7181800000000003  6.7831799999999998  7.3411499999999998
  0.5542700000000000  6.0266599999999997  8.1744100000000000
  6.5705099999999996  8.4454499999999992  8.6839099999999991
  3.3258700000000001  0.8508500000000000  8.6210699999999996
  4.1391299999999998  6.4379000000000000  6.1870300000000000
  3.8785200000000000  4.3699100000000000  3.0034299999999998
  5.3109299999999999  3.6290300000000002  5.9207000000000001
  5.6758800000000003  3.9796600000000000  4.4616400000000001
  3.7795200000000002  3.9270299999999998  6.2350800000000000
  2.4828299999999999  7.2137799999999999  7.9353899999999999
  0.6560500000000000  4.9372100000000003  9.2736099999999997
  7.5499299999999998  1.6074999999999999  3.2161499999999998
  7.1204499999999999  5.2153499999999999  5.8589799999999999
  7.9416599999999997  0.3418600000000000  8.5163499999999992
  8.0236699999999992  9.7891399999999997  5.3475999999999999
  1.1718500000000001  8.7715200000000006  9.7070600000000002
  3.7514699999999999  7.2478499999999997  7.4537100000000001
  9.3137299999999996  1.5007800000000000  7.1808899999999998
  6.5614900000000000 10.0385600000000004  7.0561699999999998
  3.0156900000000002  2.5509700000000000  6.5617000000000001
  4.5048300000000001 10.2287900000000000 10.2758500000000002
  5.9431200000000004  6.7106399999999997 10.4169599999999996
  5.8740699999999997  8.1178200000000000  9.9856099999999994
  6.9888199999999996  4.7860500000000004  4.3842200000000000
  5.7117000000000004  9.5445499999999992  8.0411599999999996
 10.6748200000000004  3.8374899999999998  9.0228900000000003
  7.8512599999999999  4.1793500000000003  3.3974400000000000
  0.0820900000000000  8.9078099999999996  8.8093800000000009
  4.3862500000000004  9.2965199999999992  7.8545699999999998
  4.5562300000000002 11.0254700000000003  6.3966399999999997
 10.1251700000000007  3.3582999999999998 10.2027199999999993
  9.4360300000000006  6.9187599999999998  7.7783100000000003
  8.5418000000000003  6.9284900000000000  5.4375600000000004
  9.4511699999999994  4.9830800000000002  7.0046200000000001
 10.7611000000000008  7.8425399999999996  5.1134500000000003
  1.6492100000000001  1.8733500000000001  4.7330699999999997
  3.3268300000000002  3.2165499999999998  3.6225299999999998
  1.4473199999999999 10.8478600000000007  3.5458699999999999
 10.5117700000000003  5.7323100000000000  4.8244999999999996
  0.7631000000000000  4.1277400000000002  6.5797200000000000
  7.4855900000000002  3.0211299999999999  6.1994100000000003
  7.9019500000000003  4.2227100000000002 10.9812200000000004
  1.9733600000000000  0.0422000000000000 11.9744499999999992
  2.0142699999999998  2.3129599999999999 10.3165999999999993
  1.6287900000000000  8.7805999999999997  3.5571400000000000
  2.1171500000000001  7.5711300000000001  5.5202200000000001
  3.3954100000000000  0.6508600000000000  3.9836800000000001
  0.3083700000000000  4.8346200000000001  3.0717699999999999
  3.9132500000000001  1.8091200000000001  5.8579999999999997
 10.6193899999999992  9.8055800000000009  3.6296200000000001
  2.4770500000000002 10.7846299999999999  6.2636900000000004
  1.6373899999999999  4.2247500000000002  4.5087400000000004
 10.9752200000000002  6.8783099999999999 10.4868500000000004
  0.1390600000000000  0.3695500000000000 10.9138000000000002
  8.8092299999999994  8.8953799999999994  4.5536399999999997
 10.8555200000000003  2.8263099999999999  4.3063000000000002
  9.4747100000000000  8.8884600000000002  6.8010400000000004
  8.7622999999999998  8.4768200000000000  9.7186699999999995
  9.0277999999999992  3.9468600000000000  4.2016200000000001
  5.0572299999999997  3.5829800000000001 11.0599699999999999
  3.5476200000000002  9.0359099999999994  5.6042100000000001
  9.4089100000000006  0.7434200000000000  4.5896100000000004
  1.2030700000000001  6.7055199999999999  3.2852100000000002
  0.4757500000000000  9.6415100000000002  6.3427400000000000
  5.1530100000000001  1.7990800000000000  3.5140500000000001
  9.4709800000000008  3.0655000000000001  5.9261999999999997
 10.5171700000000001  1.8888799999999999  4.2774000000000001
  7.9666100000000002  7.7206400000000004  3.4651100000000001
  0.0509700000000000  7.8507499999999997  7.3465699999999998
  1.5392100000000000  8.6072299999999995 11.7352500000000006
  0.1337200000000000  1.7783899999999999  8.8792600000000004
 10.7650600000000001  8.9175699999999996 11.3505199999999995
  8.6452500000000008  1.5429600000000001  3.1128900000000002
  9.2523599999999995  0.1913000000000000  3.4596900000000002
