Si  O 
 1.0000000000000000
    11.2057552410000003    0.0000000000000000    0.0000000000000000
     0.0000000000000000   11.2057552410000003    0.0000000000000000
     0.0000000000000000    0.0000000000000000   26.2057552409999985
 Si  O  
  33  66
Selective dynamics
Cartesian
  3.2740000000000000  8.3950999999999993  7.8339400000000001   T   T   T
  9.9573599999999995 10.0697700000000001  2.0398700000000001   T   T   T
 11.0411099999999998  5.6438800000000002  8.6353399999999993   T   T   T
  1.5082800000000001  1.8411800000000000  9.4320199999999996   T   T   T
  9.8136500000000009  0.9772800000000000  5.3068999999999997   T   T   T
  5.6165099999999999  6.6308299999999996  4.3350400000000002   T   T   T
  7.3348199999999997  4.7132699999999996 25.3461099999999995   T   T   T
  6.9631600000000002  3.8246600000000002  9.2989499999999996   T   T   T
  3.1452900000000001  8.2972400000000004  0.5655500000000000   T   T   T
  2.5919400000000001  6.6641000000000004 10.1517800000000005   T   T   T
  6.6987199999999998  4.9721799999999998  6.5852000000000004   T   T   T
  8.5107400000000002  9.4415700000000005  5.9520900000000001   T   T   T
  3.7271200000000002  0.1788500000000000  5.0623600000000000   T   T   T
  1.6364799999999999 10.0052299999999992  9.8048199999999994   T   T   T
 10.0639099999999999  3.2951600000000001 10.1254899999999992   T   T   T
  2.8111700000000002  5.4620199999999999  3.5613600000000001   T   T   T
  5.7675400000000003 10.2143499999999996  6.8888199999999999   T   T   T
  7.8759699999999997  5.0328999999999997  2.6603400000000001   T   T   T
  8.1752000000000002  6.3975600000000004  8.7513900000000007   T   T   T
  1.4112600000000000  6.6174299999999997  6.0765799999999999   T   T   T
  7.7758300000000000  2.8822899999999998  4.6271100000000001   T   T   T
  1.4012500000000001  1.4305900000000000  6.3629199999999999   T   T   T
  7.1586800000000004  0.3270800000000000  2.5445600000000002   T   T   T
 10.6972100000000001  8.1565300000000001  4.1377499999999996   T   T   T
  2.3573900000000001  2.4366900000000000  3.6710300000000000   T   T   T
  3.8178700000000001  3.9210500000000001 10.2252500000000008   T   T   T
  0.7664700000000000  6.9078099999999996  1.6574000000000000   T   T   T
 10.7849000000000004  1.6044600000000000  2.2691100000000000   T   T   T
  7.9044699999999999  9.4684399999999993  8.7732299999999999   T   T   T
  4.8851500000000003  9.4104899999999994  3.2469199999999998   T   T   T
 10.0625499999999999  9.9882100000000005 11.1164600000000000   T   T   T
  8.1245100000000008  2.6011299999999999  0.8642900000000000   T   T   T
  9.3076899999999991  6.6626599999999998  0.4399600000000000   T   T   T
  5.7976599999999996  6.1916099999999998  5.8833900000000003   T   T   T
  8.2100399999999993  2.8548000000000000  9.5647000000000002   T   T   T
  8.4704300000000003  5.9156800000000000 25.4506399999999999   T   T   T
  9.0621299999999998  9.3638100000000009  7.4896500000000001   T   T   T
  7.2676200000000000  1.5608800000000000  3.7185199999999998   T   T   T
  6.7439400000000003  3.7745500000000001  5.4530599999999998   T   T   T
  3.7165300000000001 10.0575399999999995  4.1839199999999996   T   T   T
  9.6910399999999992  2.4018999999999999  1.4161600000000001   T   T   T
  8.6815499999999997  2.0946799999999999  5.8355699999999997   T   T   T
  2.0009399999999999  5.9649099999999997  2.1579899999999999   T   T   T
  1.7233200000000000  2.1143800000000001  7.8441500000000000   T   T   T
  9.3137600000000003  8.3506999999999998  5.0344199999999999   T   T   T
  5.7159500000000003  8.2074300000000004  4.0332999999999997   T   T   T
  6.8351400000000000  9.3412000000000006  5.9383699999999999   T   T   T
  8.5929900000000004  3.9457900000000001  3.6867800000000002   T   T   T
  3.6669700000000001  7.4851099999999997  9.1971399999999992   T   T   T
  6.1703900000000003  4.0738200000000004  7.8319599999999996   T   T   T
  1.5655699999999999  2.4718900000000001  5.1686699999999997   T   T   T
 11.0284800000000001  6.9987300000000001  2.9722800000000000   T   T   T
  4.5500499999999997  9.2312300000000000  7.3035399999999999   T   T   T
  0.6141400000000000  7.7895399999999997  5.2199799999999996   T   T   T
  9.8941300000000005  4.2598500000000001 11.3420000000000005   T   T   T
  7.3850899999999999  3.9542099999999998  1.5157400000000001   T   T   T
  8.8965999999999994  6.0164000000000000  1.8377100000000000   T   T   T
  2.1020599999999998  9.4599899999999995  8.2853899999999996   T   T   T
  7.9590399999999999  5.9826600000000001  7.1124099999999997   T   T   T
  0.3824300000000000  6.0360800000000001  7.1360200000000003   T   T   T
  5.3287399999999998  3.5701399999999999 10.0425000000000004   T   T   T
  8.6302599999999998  8.2261600000000001  0.5118900000000000   T   T   T
  9.7609999999999992  6.6218399999999997  9.0593400000000006   T   T   T
  6.5577899999999998 10.4352699999999992  8.3108699999999995   T   T   T
  5.8531300000000002  4.8354799999999996 25.2713099999999997   T   T   T
 10.6598600000000001  4.1260899999999996  8.7193600000000000   T   T   T
  3.0510500000000000  3.8883600000000000  3.4770200000000000   T   T   T
  8.4372299999999996 10.4311799999999995  2.5677200000000000   T   T   T
 10.8514099999999996  9.6118100000000002  3.3377800000000000   T   T   T
  8.8127399999999998  9.8641100000000002 10.0196299999999994   T   T   T
 11.1111799999999992  0.8454100000000000  6.3472900000000001   T   T   T
 10.9596800000000005  6.5543199999999997  0.3935800000000000   T   T   T
  7.5047699999999997  5.2826899999999997  9.7143700000000006   T   T   T
  0.0428900000000000  2.1185700000000001 10.0827899999999993   T   T   T
  0.0491800000000000  9.7205700000000004  9.9700600000000001   T   T   T
  3.4026700000000001  5.3448300000000000 10.8274799999999995   T   T   T
  1.1516999999999999  2.1375000000000002  2.5055299999999998   T   T   T
  1.9006400000000001  5.5360500000000004  4.9526199999999996   T   T   T
  8.9383199999999992 10.8763500000000004  5.3444900000000004   T   T   T
  9.8651599999999995  9.0854900000000001  0.6809100000000000   T   T   T
  1.5545599999999999  8.2206499999999991  1.0193399999999999   T   T   T
  5.8776900000000003 10.5691500000000005  2.7793800000000002   T   T   T
  8.1305499999999995  3.2016100000000001 25.4616100000000003   T   T   T
  2.4497000000000000  0.1743600000000000  6.1139400000000004   T   T   T
  2.6274700000000002  7.3725500000000004  6.7784700000000004   T   T   T
  2.5589100000000000  9.2071799999999993 11.0388199999999994   T   T   T
  7.3209799999999996  1.2185500000000000  1.1530700000000000   T   T   T
  3.6253899999999999  1.3630899999999999  3.8672399999999998   T   T   T
 10.7791599999999992  0.1742300000000000  1.4408399999999999   T   T   T
  4.1197499999999998  8.8017199999999995  1.8982800000000000   T   T   T
  2.0113300000000001  0.3470300000000000  9.8328299999999995   T   T   T
  7.4557799999999999  7.8548099999999996  9.1574899999999992   T   T   T
  4.1982600000000003  6.1920999999999999  3.8154699999999999   T   T   T
  1.3063800000000001  6.0009699999999997  9.4753799999999995   T   T   T
  5.1069399999999998  0.1535400000000000  5.9412799999999999   T   T   T
  2.1711200000000002  7.7947100000000002 11.3801100000000002   T   T   T
  6.7665199999999999  5.9950700000000001  3.3925700000000001   T   T   T
 10.2385099999999998  1.3741699999999999  3.7967200000000001   T   T   T
  2.6588699999999998  2.8442099999999999 10.2033699999999996   F   F   F
