CH2F1                                   
   1.00000000000000     
    15.0000000000000000    0.0000000000000000    0.0000000000000000
     0.0000000000000000   15.0000000000000000    0.0000000000000000
     0.0000000000000000    0.0000000000000000   15.0000000000000000
   C    H    F 
     1     2     1
Selective dynamics
Direct
  0.5000000000000000  0.5000000000000000  0.5000000000000000   F   F   F
  0.5000000000000000  0.5000000000000000  0.5728115708479927   F   F   T
  0.4685257042741856  0.4653767764874763  0.4439942215174996   T   T   T
  0.5812946502764169  0.5343172494083280  0.4781519743357935   T   T   T
 
  0.00000000E+00  0.00000000E+00  0.00000000E+00
  0.00000000E+00  0.00000000E+00 -0.30921521E-02
  0.10111910E-02 -0.15206498E-01  0.12540092E-01
 -0.94458404E-03 -0.29487527E-02 -0.16668081E-01
 
           1
   2.00000000000000     
 -0.80540539E+00  0.50835390E-01  0.50752347E-01 -0.85619926E+00
  0.50000000E+00  0.50000000E+00  0.50000000E+00
  0.50000000E+00  0.50000000E+00  0.57239928E+00
  0.46866053E+00  0.46334924E+00  0.44566623E+00
  0.58116871E+00  0.53392408E+00  0.47592956E+00
  0.00000000E+00  0.00000000E+00  0.00000000E+00
  0.00000000E+00  0.00000000E+00  0.00000000E+00
  0.00000000E+00  0.00000000E+00  0.00000000E+00
  0.00000000E+00  0.00000000E+00  0.00000000E+00
  0.00000000E+00  0.00000000E+00  0.00000000E+00
  0.00000000E+00  0.00000000E+00  0.00000000E+00
  0.00000000E+00  0.00000000E+00  0.00000000E+00
  0.00000000E+00  0.00000000E+00  0.00000000E+00
