 edited                                 
   1.00000000000000     
    15.0000000000000000    0.0000000000000000    0.0000000000000000
     0.0000000000000000   15.0000000000000000    0.0000000000000000
     0.0000000000000000    0.0000000000000000   15.0000000000000000
   O    O
     1     1
Cartesian
  7.5000000000000000  7.5000000000000000  7.5000000000000000
  7.5000000000000000  7.5000000004365067  7.5000000000000000
