CH1F1                                   
   1.00000000000000     
    15.0000000000000000    0.0000000000000000    0.0000000000000000
     0.0000000000000000   15.0000000000000000    0.0000000000000000
     0.0000000000000000    0.0000000000000000   15.0000000000000000
   C    H    F 
     1     1     1
Selective dynamics
Direct
  0.5000000000000000  0.5000000000000000  0.5000000000000000   F   F   F
  0.5000000000000000  0.5000000000000000  0.5761973127938963   F   F   T
  0.4147979544197092  0.4953997379130346  0.4769935590779082   T   T   T
 
  0.00000000E+00  0.00000000E+00  0.00000000E+00
  0.00000000E+00  0.00000000E+00  0.46469112E-03
  0.22219024E-02 -0.19825280E-02 -0.10740565E-01
 
           1
   2.00000000000000     
  0.65796013E+01 -0.34720934E-01 -0.31139343E-01  0.66125314E+01
  0.50000000E+00  0.50000000E+00  0.50000000E+00
  0.50000000E+00  0.50000000E+00  0.57625927E+00
  0.41509421E+00  0.49513540E+00  0.47556148E+00
  0.00000000E+00  0.00000000E+00  0.00000000E+00
  0.00000000E+00  0.00000000E+00  0.00000000E+00
  0.00000000E+00  0.00000000E+00  0.00000000E+00
  0.00000000E+00  0.00000000E+00  0.00000000E+00
  0.00000000E+00  0.00000000E+00  0.00000000E+00
  0.00000000E+00  0.00000000E+00  0.00000000E+00
