Si3 O6
1.0
        5.0610885620         0.0000000000         0.0000000000
       -2.5305442810         4.3830312655         0.0000000000
        0.0000000000         0.0000000000         5.5405015945
   Si    O
    3    6
Direct
     0.000000000         0.500000000         0.666666687
     0.500000000         0.500000000         0.333333343
     0.500000000         0.000000000         0.000000000
     0.208628282         0.417256564         0.500000000
     0.582743406         0.791371703         0.166666672
     0.208628282         0.791371703         0.833333313
     0.791371703         0.582743406         0.500000000
     0.417256564         0.208628282         0.166666672
     0.791371703         0.208628282         0.833333313
