Si8 O16
1.0
        5.0053858757         0.0000000000         0.0000000000
        0.0000000000         9.0634040833         0.0000000000
        0.0000000000         0.0000000000         8.1872673035
   Si    O
    8   16
Direct
     0.092373401         0.332872480         0.437357008
     0.907626629         0.667127490         0.937357008
     0.907626629         0.332872480         0.062642992
     0.092373401         0.667127490         0.562642992
     0.592373371         0.832872510         0.437357008
     0.407626599         0.167127520         0.937357008
     0.407626599         0.832872510         0.062642992
     0.592373371         0.167127520         0.562642992
     0.117214322         0.242461562         0.951574147
     0.882785678         0.757538438         0.451574147
     0.882785678         0.242461562         0.548425853
     0.117214322         0.757538438         0.048425853
     0.617214322         0.742461562         0.951574147
     0.382785678         0.257538438         0.451574147
     0.382785678         0.742461562         0.548425853
     0.617214322         0.257538438         0.048425853
     0.000000000         0.329728425         0.250000000
     0.000000000         0.670271575         0.750000000
     0.500000000         0.829728425         0.250000000
     0.500000000         0.170271575         0.750000000
     0.110803209         0.500000000         0.500000000
     0.889196813         0.500000000         0.000000000
     0.610803187         0.000000000         0.500000000
     0.389196783         0.000000000         0.000000000
