C  F  O  Si
 1.0000000000000000
    30.0000000000000000    0.0000000000000000    0.0000000000000000
     0.0000000000000000   30.0000000000000000    0.0000000000000000
     0.0000000000000000    0.0000000000000000  200.0000000000000000
 C   F   O   Si 
 2701 1294 1543 840
Cartesian
 23.8836010632711222 28.3067812545812245 82.8353827443067559
  3.8741235649461156 20.9009480396684815 72.4676993686273505
  0.4986959890996820 24.5787357742200712 69.3458662493541595
  6.6095632581887429 27.7609870314497478 71.2281267226194643
  0.5725647114850265 27.1174094416758145 69.8256899486923288
  6.3613236284071091 27.5708614799860463 64.0337579765851785
  1.2872696616186197 24.2788747998379577 68.1498585806737509
 17.2284979682726878 14.8119636056998107 35.3369761161436315
  2.3305729393277521 28.8103074231874885 68.9631641700333091
  1.3608607909027706 27.6028987513943989 68.8791854448578960
  3.6008841824749180 25.1747218878738330 69.0362967415746596
  2.5800866699775309 24.6744087354097132 67.9840677547579730
 29.6298555860633535  9.7739632844682340 36.5159674863698882
  0.5193204060201226 25.6817745023596444 70.1059883519890974
  6.4162415301428481 23.2435704018136597 66.0812370741456903
 24.7039678026616798 14.6204239381352359 36.5449856376396198
  4.9830265694241591 29.6362117125978095 63.7739595592662241
 28.2778176882225090 11.9305222680366683 38.3742629414783494
  4.3923331270757862 29.7841152958142956 65.2554968622724516
  7.2095727697194834 26.6496130307039323 63.4826734959873633
  8.5331230166588004 22.5997151556261784 64.9162273352965968
 25.1251826327355303  9.0176243833823779 33.9825109409617454
 15.6882112045498694 20.5003066568906256 66.0099553545313853
 12.6860429740215359 22.6373570027548858 71.9634810598626302
  8.4500418442484637 18.3551401871607354 69.0571158188865013
  8.4782121988132921 21.3903554218640082 68.7946508330323354
  8.1094439031850545 19.2760075574034033 70.0463502332937225
  8.1036920339425471 18.2088480968556148 67.6919853578756801
  9.5867584319806110 16.4693724738945093 68.5150116583895681
  8.2289558675213392 16.4593404197895126 65.1244645234539519
  9.1282337197668291 16.3100399318449121 66.2423620294554070
 10.6792942862936009 22.0547737985865311 69.6589573554425669
  8.9522787743045846 17.1108577640705377 67.3698569289205977
  9.2657073128713066 17.3344548361850421 69.5821100849363745
  9.3103577139672371 17.4981552630734960 71.0067995503205083
 11.6020913212077925 17.0559033658231343 71.9962759911515349
 10.2160468110033591 16.7550392640865944 71.9297326589663726
 12.5457593928719664 17.8889958867112142 71.2878507828497447
  8.2597891583555789 18.5357433921380341 71.2923851257214665
 13.8212932287337722 18.0666290565401084 72.0142622459416373
  8.5485665706031355 15.0084883320028268 71.8919522647953926
 15.6368935010824810 20.7944020487238852 70.8637572750489824
 13.7973681539097495 22.9228512568745586 64.5097570038183932
  9.3037992883065250 22.3129052041174347 69.3188008290697155
 10.6307127311104868 21.6309979495993190 63.5923774933561461
  7.2283694064144912 28.4041068608677136 72.4072576954429508
 23.9897393936261842  9.6168675111084081 33.7930774748049103
  3.2454448564975880 20.0767684103632398 67.1470269339147734
  0.4735454426720397 16.6716907125360905 66.2374958023822700
  1.5688264026187568 20.0292807548956056 64.8667869232057797
 22.0350661327471613  6.9406320147038230 52.7312544716462170
  5.2172076947020445 19.7622273378054167 65.8266184981008990
  2.0172194836365258 19.3435563028205628 67.0632657215926855
  0.3508150820658753 18.6436876627664958 69.8957872320658424
  1.2033244474341960 17.5398659870182172 65.3701837970334765
  5.4372215747488104 20.1230638974585609 68.3170117844423856
  4.8819996069371570 15.8946676214564526 71.7590261773578533
  1.6350310751879049 19.4690742929076812 71.7071916131669269
  0.8631264541394460 17.7521941205080473 68.7428434311413810
  0.5721504989406325 18.4155396079273643 71.2706393570825441
  3.7161819061758661 16.5873539385566744 72.1369068563227387
  0.6169143965965691 19.8911219601075473 63.7810914660938408
  2.2280072015923249 19.8470075667493475 70.2518952122634204
  1.3637312117521776 18.9860489986352619 68.1998580448110090
  3.1978479117212792 17.7200088900975352 72.2368815074816268
  2.5488375408237016 15.8715178058897273 63.8181212571591772
  0.5735294055899538 16.8486038626904957 67.6209462761454034
  0.1457296954205038 25.2407161797980422 71.5429823887842673
  1.5030322545910093 18.9092650692965272 65.7269235095112521
  3.8574941918640366 20.2436055608418464 65.8926708877247052
  3.2968233865117580 20.9595270876658795 63.3494983386410055
  0.5905417353589760 22.1887644863211513 70.0892877019651337
  0.2046917368721763 21.0437424230498991 69.4121667554446447
  2.8961641412050563 20.8432923214067038 64.7533515602840879
  2.6989269667255060 18.9822045379657247 72.5347731944101781
  7.1633525444993102 18.8256812442572965 66.8639103462859339
  7.2121753154511810 18.6207485905930419 65.4429528813633397
  6.2036050856889036 20.4465311129542044 69.5367052489252870
  7.0850607121301188 15.3843146216507503 71.8213361603299489
  6.2862902857628260 15.2404719891900253 64.0149640616520799
  5.8692237543496839 19.5828292518250286 67.1042191018807301
  6.1207761740545950 16.1080829471177758 72.5065310565641710
  6.0676349705017847 19.2107425361655295 64.7175238069871881
  7.0827646843198071 15.4194302985618954 65.2546977810284687
  5.6003201239255072 20.6896499263996496 70.6900665764719776
  4.3335224512409107 20.7966314447388321 71.1123968656147412
  0.6252592743692353 16.1232922436027337 70.7485637529910605
  1.1445581141741898 16.4678312461559493 69.5078619314671613
  1.7174796141041058 17.1986865467995393 64.1318864738526315
  1.0145907814563804 19.8843168569987512 69.3547107527771232
 10.0097383225173697 15.2230423643179549 68.0591318739641480
  9.8879629576712720 15.0607750523174992 66.5198648222772420
  9.7868267145406769 15.4464766405348417 72.4112909416439976
 21.5526292267304562 20.0179747027095623 59.4722577331882860
 19.0625145968121927 19.4137332538685961 58.9713930824519821
 20.8247283831587104 20.3334928628839222 61.7228113892915786
 21.5459151243317883 16.3753912202240528 56.3110061186157509
 16.1678654317601982 17.2220169495049724 55.6444527329419500
 16.2495555724855372 17.6937737466630480 56.8668412171989246
 16.1806921008339799 16.7770727371797364 54.4628436334346091
 21.6319827182021065 19.2424513571257876 53.9421850292127161
 18.3111101323908230 21.4684531286135964 55.0857648808471794
 21.1368329712725078 16.8771635460209737 57.5612673178210486
 20.5198794540834903 20.1034298326416767 57.2006382158609199
 20.5808727706855059 19.3474520644107173 58.5145183977678371
 20.8758679510917489 18.9495432792869849 56.4450246933954816
 21.5092181512976595 18.5366846125218991 55.2522825277738221
 17.8472362155492235 17.8491069060682968 57.4405180908048507
 21.7569480846867940 20.6687558916779039 53.5217912425932525
 20.8560054086863644 18.2135159475681299 57.5689559634652497
 17.1866303180618019 17.1445379321880793 53.4403105573338593
 19.8965335857553285 21.3384631839751648 57.0920955703458048
 15.5813383929689024  7.8958615455081231 44.2018918855161971
 19.6222023128524974 21.8385528019782953 55.7864686979423823
 19.8316772257038814 21.6025413339180865 59.8011231997127766
 16.7112548822490723 19.6718993906064412 60.5477166187571996
 29.4049376878574691 20.6242558358283965 54.1243982471578562
 22.7509695293451166 15.8726293549995194 60.6679860616024200
 23.7400685330698948 15.5326890903320844 58.3671433945584326
 10.3840564812185079 14.1031198177765749 51.5196071769777362
 26.8721150567386573 17.9784390035390942 60.4333002631768821
 27.0551568810754191 17.3282908615734286 61.6816312467690295
 10.8590321390706972 14.4609294817987983 52.8943886496072579
  8.2836203138272744 13.4306084821915945 50.1940308108537963
 23.9080090962588478 20.5547431804863976 60.3449367561966881
  8.1776714668378734 14.5104205493443708 49.3097598333416016
  9.3568921767634468 13.2503814761151197 51.1423617666647132
 10.8431354586904032 14.9115249181962284 50.4588732569777108
 22.6134868733629126 21.6611571150490327 53.9618658179117361
 22.6480712272374340 15.8208089244809251 59.2467318417881899
 18.1907592483563860 21.1070074904503500 61.9934325321342214
 21.3762383635483282 15.6543578135057100 61.2325394240613363
 17.9318354984700292 20.3443971468109197 60.8799922498341388
 18.8504646997289171 20.5142693056162955 59.7599710051011499
 16.7421388542919303 19.0452662886747603 59.2753746914035560
 20.4395027661668536 16.0753400057343327 60.0456376605303248
 17.9021677508356660 18.8307257307499292 58.5410239958999128
 21.9519507381264738 17.1577942892197157 55.2454143872748489
 20.9040921019369605 20.7618771108231890 60.4426824306664088
  9.5180504360363845 28.4874587314609897 71.7100211916798145
 13.5816170327448145 25.3120405072385140 63.8720811564200943
 24.1471342115395586  1.3851579737612560 31.6323827733731626
 10.3568494177031276 25.9289518588070784 72.1110877641098824
 10.1044607676796527 24.4924487487480143 71.8886054847364591
 10.0126561294793568 27.1302900161804601 71.4262314956088034
  8.9444492841178604 23.9273090110945894 71.2240348588554895
 13.2763135477307443 24.5418531469864405 70.4217225748057274
 10.4001300804253578 29.0103761345080216 70.6844451730377443
  8.6593246938477364 23.6644648606143733 69.8211580015511686
 12.6179508746061160 23.2042548431691813 70.7632987434846683
  7.7279381079697922 23.5829263220025389 65.4844157225880821
  9.6824691674505399 22.7903083615009692 63.9713866837497989
  7.9147997170552458 17.7070158077227511 64.7639163639846629
 15.5775865465183490 21.0773769590402793 68.5064833137626863
 15.5893881194521953 20.9332872873996791 67.1431558485808608
 15.0304713133464869 20.1863620075633818 69.6000111992010062
 15.5317400597894384 20.0528507717916327 63.5501338818496677
 15.6243588781462552 19.9957236141170540 64.7854067916329228
 23.4968315623839068  0.5208787810565613 32.6546637942371945
 15.1524633069183743 27.9351292065675025 66.9709195353236595
  9.4446749806518078 29.6962679085757806 65.1983144148175597
 14.5617869771632424 27.6902856709235543 69.6629882473211950
 21.3987562842527481 16.3152537223208611 58.8353820319903704
 19.0144149313743753 22.2874744764034070 61.8837421912072898
 20.1708788509098476 22.1824480897421665 58.3920519881399400
  7.8401948878376286 25.3988683095489307 64.0436431201556502
  7.9069370462940007 24.9808411784514099 65.3655013084185299
  8.4819108775063086 22.9697417661652565 72.1035057985340302
  8.1039732950331214 24.6971261906516943 69.1289412767231966
 11.7270821224218320 22.9859941758739446 69.7075334515061513
 13.6661187064607770 23.9330443741522956 63.4664270741984637
  3.9546611934312796 20.5488830693391193 68.4461534210882832
  8.4568132260815627 29.0100235734506242 72.4468956887689615
 11.9033198033868679 23.9418386250158903 68.5496784185411343
 11.3652045520268477 29.8634456639223416 68.7585688619815727
 12.3267635690169115 26.3547795881917253 68.9958848705201717
 10.7425941604983421 27.7040902007934768 70.3114213635989245
 11.2956170729801144 27.3810579102129239 69.0578296898953852
 13.5453739354710621 27.0890639600852978 68.8391291857344640
 10.9029611294523310 28.4953992924320048 68.1542414274488237
 12.4482061565454174 25.0793775491331452 69.3319674462066615
 14.5781567364004374 27.5845269787831135 68.1425551115318484
  9.9964260743859690 29.9561075748373824 63.9583516464234094
  3.4283596270569476 20.3398602373380726 69.9295495426128326
  0.3339714376625704 17.1166232897742674 71.7357211385709661
  5.1008062645129115 14.9195319566085871 70.7027402859984875
 19.5612011034062512 10.8545862050753108 50.0509893506640680
 12.8095805208831290 20.1723674467141088 58.3092716104378539
 20.0326107642806406 10.1463597432561166 51.1650442783467625
 21.3047579034276282  9.4841756072448735 51.1017478309082165
 13.1855131385123094 19.4372890520968298 57.1174829707980933
 18.5657631539510284 11.5288416883404299 52.8823676738847581
 22.6736238917065158 11.4821948855658675 49.0861146353001345
 12.8892466590750185 20.6555799202069821 53.3942614780310478
 12.8677358581520096 20.0194948433823043 55.8132663262713749
 13.9464321853849924 18.2684468338196702 57.0902648274196594
 12.6891581362080661 21.3428634986738999 55.6974563260436568
 12.1684476600911076 21.5230783802297942 58.0611641182932985
 12.7736031484542689 19.2992286503802717 54.4882758110418877
 12.7564478046642442 22.2019046968505940 56.9049434420101932
 11.1315822999609644 21.5192384712964895 62.3513568487798722
 13.8835137223392504 20.9464051246841123 62.2712007338575759
 15.0437428549664247 20.0900178457870240 62.2760917284730695
 15.4602556971863176 18.6683371865297012 58.9261393890566723
 15.2040432678336259 18.0802960132614707 57.7000272803464966
 19.0917884861338543 10.1956170861229118 52.2829158670787422
 15.4075985546876950 19.6815175308091490 60.9755169495490321
 12.8735532090241893 21.8162014906324053 54.4508766966733972
 11.1153856505849138 22.1414880107783567 58.7746457550871426
 10.4039790205948766 22.0214669324578196 61.2708327676237872
 27.0510361082230908 12.8029635528419234 51.0963400847343152
 10.3828489080098798 16.8973983658969829 57.7388766436463499
 26.1503300124043747 10.5953812058875823 52.5183409181871141
 23.7652533074848620 11.4904636394814794 50.0081073543661390
 10.6326378808245199 21.4780731498960620 59.9421649381877373
 27.4079360557467169 12.6100625261632775 52.4276874171231171
 12.5357771111579996 21.0925896649190534 61.7768440417870934
 24.6311630705095510 12.6006168484140701 50.0301688795971344
 25.4634659210556187 11.0465877522352063 51.4455328248572670
 25.7744258705136282 12.2539207216711858 50.8290130965676639
 24.2451283185939630 10.3303313731084447 50.9478384732275771
 24.3280494037483912 13.8729654151107535 49.2984213197176615
 10.8376513671785197 20.1537419186333793 60.1951978402270740
 14.4972325408978495 19.0454793649660701 60.0481273817753873
 12.2000911812137538 19.9649645713272896 60.7525650702327553
 13.1879442672129983 19.6874366445518305 59.5789477405506247
 22.2364748893699016  9.2072087733444263 52.1101658833236456
 11.4088693124826595 16.6805761073235246 58.5585883893382260
 13.4986554798978169 22.1805345615216254 61.8661590374561499
 12.9183998726371456 23.1988527798173934 54.3024945544097548
 12.1600786174744755 23.5317905279791795 56.5632665895449946
 14.6335826362122425 23.5789418279072898 57.8175826717905039
  2.6642701701179696 16.3310634055098731 34.4585174866205719
  1.5841550651792240 20.0414520708768755 59.5057635727729988
  2.8294610557694586 23.2080906987529438 58.9160156882423323
  9.2934561924642889 23.6082322286606612 62.7868293537666915
  8.3002013138300583 14.9771491366783049 60.8627136692533881
  8.9253230059012445 23.5902361222791903 60.4032589031065612
  9.5869059481365042 23.1145072290821965 61.4901573549963700
  4.4812665271024423 21.7010341740942501 58.4663282140901828
  5.4462021733541688 20.0060769840711430 62.3627634534665631
  7.5548832020740377 16.0511512875114413 60.1242181488361140
  5.7965019344751028 15.5549427669191900 61.7749297547920548
  6.8401271721052597 15.2360982099514484 62.7621215160311294
  5.1114258613268939 20.3723890380969834 58.2200437736641305
  7.6489370949162465 15.9295865272160260 58.7652314107724791
  5.6880972416535922 19.8961081501591899 59.3821436694985181
  6.4872530564563009 16.5486314410196975 60.8707820372459523
  5.9948832696553209 18.4676187613672340 59.4641171030032893
  6.0877719510326322 17.8790532975198957 60.7599004216758729
  5.9444320541128590 21.0643665115831951 60.2428867902708802
  1.2368923685958655 18.9996395256461490 60.3228936501777682
  1.8827267055807559 17.6988786902756630 60.5616401693067985
  0.4694913103639023 22.5747593895944689 61.1848976696019875
  3.2203820051293963 16.2380722411565799 62.5133601032003128
 13.8167445492040226 23.5160841611247875 62.1019702549470836
 10.5850881013258906 23.4105723731721760 58.4391316790078861
 13.2625043098328597 23.7767454127168065 53.0783750223854724
 14.2234544406185073 22.3774963924319081 57.3095576617768643
  5.9063757253078348 19.0734671128569993 63.2852721405332446
  2.9277182445690655 15.7141110965242579 33.2386430366113785
  5.9732967800850849 17.7650537135166147 58.2321865625695523
  0.7406813034229328 23.6760760517350057 60.3349669856077995
  0.8902153014348083 20.4145513049459595 58.3021418823730286
 23.5618099192635064  9.6836237791658526 52.1830960561554065
  3.1187374163748696 20.9004709409844125 61.3055753943050803
  0.4701756832415358 19.4930549290150132 61.5129457849610475
  2.6749867523434183 21.8627103336218624 62.3017261502557460
  1.2658237257939162 22.3416675200961059 62.2494151172782608
  3.2164736073448346 21.9054390579187732 59.1856129232899448
  2.6658744032375492 20.8947926293776547 59.9814857458695556
  1.7628632812280030 17.8835741869246263 62.9360641362287225
  0.9780196325036271 19.0251537426415638 62.7580954800619608
  4.5742336944378570 15.9335610214871828 62.5997644590938123
  3.9832879722837502 20.3007825539456093 62.3357770310885471
  2.3756352373600622 17.2522408629308934 61.8305726015558861
 25.6147944224731532 20.4406379192238035 57.4142101182205735
 15.4718127651820812 23.6471549123568927 60.2976900350900138
  1.9335190032834328 24.0002666954187944 59.5805756317222972
 14.5213673696687309 24.7924726800841100 57.0934400550515235
 11.0370567685370684 29.7698153693583194 61.8476553519602987
 23.1392575410855095  6.2254861633457148 51.8996465531553000
 29.3544968694289032  6.9677993168056425 50.2470681153761234
 11.5250056073969311 29.1763750921697032 60.5628987515531207
 13.8210828721419059 25.3333312653538769 60.6229120216365231
 28.4714237631467242  4.4751817647842662 50.6768457286271286
 23.5591401838804266  1.0826591964441907 48.7622799326029011
 25.4083762059885210  5.3874802168800020 52.0831783098362564
 28.3892262154607380  4.4163655573526182 52.1463022917714767
 24.5178823424832721  6.3307426145670549 51.4047075789138219
 14.3858294190907383 24.1225458187148476 60.9532645011497323
 10.8125387990922164 29.3066065610883335 58.0096733942127116
 28.6350070074381406  3.0006689181290227 50.0886599615950630
 23.5214954860410934  1.8816503574513763 47.6692468652130970
 10.5001445761757619 26.6235259973415559 57.9874725438996066
 15.2870822106553224 27.1264179572229693 61.2012772484811691
 14.6120664132644364 26.8677502327792510 58.7887678522207011
 29.6174134701292537  5.4684961026751084 50.2049687772199960
 13.9261195909455857 24.9565356814339019 55.8375634662071647
 15.4023856783011084 25.8770025080031871 57.7089025366034036
 14.5249141436295588 26.5144213977805414 60.2813148542300397
 11.0771312883711772 26.4097861425171523 55.8968978278058017
  4.9138558345263768 15.6966350938473553 63.9555361389026942
  0.8673835658346039 15.6758283813650596 68.3661877930005488
  3.7444427499565625 15.6086449472534134 64.7106761182958081
  7.6715669119129384 20.5015753654991357 69.6020359570447908
  8.9933426680149431 28.1559241341686253 52.9921164445979826
  9.2938227251864625 26.2931887455856668 58.8005793776047199
 21.1873795974077979  5.7314057033548194 52.5821774147759200
  8.8156198257577536 24.9738952145406223 58.5460094293700166
 15.5404146887752219 26.6312944963238181 55.2506051189555549
  9.5206901926867360 28.9405818498871490 54.0039376594673826
 10.7983137606182069 27.7671190145972133 56.0492300032403676
 22.3143216326070295  5.1396955492117398 51.7491421093222570
 11.0648972980354525 25.6379831512717971 57.0868253717092955
 14.4250073723797296 25.8404945777477764 54.7907011125397645
 11.2917160075730756 24.2420920313510102 57.4291589584118753
 11.2015690001026584 26.0077791280199442 54.5047250083133363
 24.3733581579215119  0.0020924250043427 48.9490739445682621
 10.3367420078541024 28.8115321373050080 55.1267872372454661
 10.7574620999931128 27.9821247044297827 57.4480263824792914
 14.1904649646736516 25.6797334437491465 53.4062852240127199
  9.4571999033662451 23.9017729149442602 59.0611910241340823
 10.2858253454112223 29.0148571477627435 62.8165657591732511
 12.8938237030762188 24.0000559104213487 55.4463441285964720
  4.1636489106493899 28.3709120734915210 53.3469116725263675
  3.6292316754170191 27.2563542663381888 55.3640296773685989
  6.9616607974477924 26.1976959028613905 55.0233730659370508
  2.7158536875198522 26.3418065057684139 58.5461326578289203
  5.3477037938890541 27.2654856725918862 56.7342091839439533
  7.2684174207144929 28.6755848075689492 57.4230016990823984
  0.7199668936021533 29.1081845042051661 58.0435747307926277
  1.3636400361817309 26.4078280276245181 55.0911419794197030
  3.8514297800466784 27.2184274418074956 56.8227317566555215
  2.5629070513696339 27.4383893794673810 57.6039887498180150
  5.8438077940175228 28.4988158341517490 57.0855700801257129
  2.7478009178430001 26.2888407550740872 54.9046369276188457
  0.7385631708472707 27.4337465597109968 55.9894563696620509
  7.3254174370809872 28.9516136660173551 58.9198750128126179
  7.0729710513521944 27.8041139509404474 61.2756712158951018
  5.9921324348435929 28.4426601654142495 61.8414994065522805
  0.7979038528174884 26.0078188237925616 60.0062830861339904
  5.1726645468128227 24.9244968165032574 56.1713948506272303
  8.5761821738531943 24.7970516827532883 62.9779463645401734
  1.4297694650105022 28.0894859225935569 57.1364442297212207
 26.6020138799653694 12.6166207255805709 40.0379461653618733
 27.9587116962681179 12.4797982782980963 39.6618008671083473
  5.9174463636336281 26.0898000021756893 56.1001127695081792
 10.9345367928713717 29.8652115929878121 59.3706289514067436
  8.6140856360432885 27.1460278307142282 59.4965470895289315
  4.3813110057564630 24.7089342915964529 57.4778427300820098
  4.4959940728419010 24.2957375463912904 55.1005641475130616
  2.5026431346921019 23.9730639126959915 54.0883469771972329
  1.1721208899804396 24.3648760931629909 53.7836515283224657
  8.6547768668231448 25.8563589553041417 61.9205515697615283
  7.6530216966922389 27.9111439246810811 59.9519139808521970
 28.7200565296187449 13.7983288611656558 41.4968413234901519
 15.7625390544779549 23.6949187972415203 58.8667302548479867
 27.4028646243569654 14.2007726565394599 41.8060190920162924
  7.6583909779516421 26.8041781753497332 62.1462152105777150
 29.5906942714048000 14.5142866812187386 42.3511304769662473
  1.9039351048934583 25.5159248595863275 59.3418456738180851
  0.5553379177342062 25.5196712617069998 54.3573898627270893
 26.4248512693356581 13.7192819659046705 40.9530010860141900
  3.2986826546535122 24.9803188325275443 54.6680569216197654
  5.0362618556669299 29.6538428821010172 57.1534404048030140
 28.9453922372362520 12.7961199868031201 40.5501622093574525
  3.8041691480182052 25.9315317390499835 57.8100327273375783
  5.7852119006063640 28.5614436039397539 63.2830307079335981
 25.2287025173066795 20.2545993414377214 55.9734006011444407
 24.6449053706219559 21.6070573227398270 55.4058725568648853
 25.5306327493511773 17.3219511747327175 57.7651633758280241
 21.9603244905516277 28.7831193184299856 69.7165403294019512
 17.0521807181602512 29.1983555616148394 67.8950374431008754
 21.7388177436208316 25.0689698516013486 63.2734100339509240
 17.3364297275189863 26.9794359871995191 66.4770328684622456
 20.0177066697288879 28.0537424093549426 64.4342394175934174
 21.5223959395429638 27.2880537341124416 69.7845117112355666
 17.6076115914685438 29.1805984784926302 70.3668386099934793
 16.5078024246041437 28.2743154460337394 66.9631942426672424
 21.3666155506525790 28.6079879960450505 64.0978399199454572
 18.5363049425355122 27.2443056059356863 71.5354863940083732
 19.5712096484628191 23.9082720665904453 72.0438732022133621
 18.7701326246822191 26.0676310791175361 71.3221013175935354
 17.9362514843840550 28.4971643298193911 71.6341012150690801
 21.8055190434191779 29.8729711506254780 64.2196646266495748
 16.3438963612281967 23.8484206956831848 72.2876210895111910
 19.3334447997161512 24.9349202833913530 70.9982800091163426
 17.4331760276804175 28.5748471080078410 69.1621695438132207
 22.6012482482782175 26.1172247896027372 63.0033838531779509
 22.3021006233808059 23.8590120395002501 63.8359708745022445
 19.5956675216797613 24.3753893281501810 69.6601897142955551
 22.4859049916824958 28.9700802067359113 67.2094949658608840
 22.1292090951629916 29.9137826329164511 70.6367717533310469
 28.4435962993954945 28.2794729188691711 70.3583749249960562
 26.9045823448853838 25.9317391292836312 66.2134222671617465
 24.3462083256217845 25.7053255442816422 66.4027826672692072
 28.6734968176599487 24.9329250952653751 64.5484306972340676
 25.6924828899801874 25.6521871051518602 67.0151428099046313
 27.4095748981734992 24.7298747116943964 65.4212192997813133
 24.9700695184275219 24.8423571258118692 69.3049935042314189
 25.9202929338319343 25.1468214754537094 68.2837768786448720
 26.8400600231660960 27.0477522440780120 65.0974954138841042
 28.1694109261715582 27.2364174444637790 64.5538724553243242
 27.1635032074837355 24.6213869948803961 68.7992176357569889
 23.8539356765257153 26.2437045559113997 65.2763628504013127
 28.0964000303581187 29.5433739388946108 69.6913416979782170
 23.8361536248974133 24.2291346022189629 69.1079143979844588
 26.7799026470570105 29.8684715758598465 69.6916142881804888
 26.9124839932013700 23.5027707572140763 65.6446630529309516
 23.1259690307733408 26.7801485654533344 64.2564308886619955
 25.2422053831981934 24.1096992592506538 71.7270725337601220
 29.3160865088758200 23.9383029258265196 71.3684734441605571
 27.8752472976472738 24.3673702644798098 71.4263122290398371
 29.9477073614793383 27.6919099364128662 72.2231619590226614
 22.6493432208138863 29.1680864794746846 68.5435958903866123
 22.6978585785386358 28.1432133142307954 64.2623729554299814
 25.9893345628919050 22.9210053544541168 64.5361312037373551
 22.4800207310422486 21.6159357842763917 63.1246198594839569
 28.1843490833727799 20.6812229091262267 67.7049246091171710
 22.8250569555989848 15.5313834721940509 70.2583188360725046
 28.9971342867081141 21.4319330018337588 68.6571219555191163
 25.8334666904005381 16.0394248382803397 66.9575412505157175
 22.4157177757736932 17.8088067588773384 69.9106701761058247
 23.1726597716661473 15.2993986298781941 71.5923163322022731
 19.0354205105389092 15.0461262816347947 66.3380960592670164
 19.3675272318892198 22.9379781635452069 69.9200737044686491
 20.4716771925664531 15.1581494186506678 69.3815020746593945
 19.5185609177152664 15.1276093979636279 70.3540929229461796
 16.7321509685166063 22.6728278194174671 71.7561798589304800
 16.1719889012384925 22.2249621690121266 69.1689273912906089
 20.4675845539956249 15.1526243036247639 66.8139277212724920
 17.2380540907676512 15.9297374484988481 65.2383138148255597
 18.6302021436688143 18.0005447522743971 70.4969030553219511
 21.1998964094978923 16.2702129680091012 66.2090787261846572
 20.5830093839071147 17.3288684923700238 68.2054174656910419
 21.0281108209500793 21.2928360567948758 62.7901367630386034
 24.4826750227543428 16.6195589446070215 68.8558223616327609
 27.2136835742281420 22.8382415199207998 66.9237798048834520
 24.7447114686158116 16.6867745664587588 67.4087219251429133
 29.7071243665260170 15.4965927314843039 65.8449738342258968
 24.6592291156067489 22.9101758592918401 72.4305041939680336
 22.6995164650717278 22.9474042791060526 62.7753293661171199
 28.7094770083347761 22.7610348795791744 68.9278135830294474
 26.7813521264755749 15.2478126364644222 66.8778819802752622
 23.8715236498434571 21.7447054385277880 72.4937839697732045
 24.5001140069981567 19.9612902667572314 62.5223474679198148
 22.9468366509405151 18.8615301400313093 72.3469569488650421
 23.5458534892633509 21.0026487391008168 62.4331202963247378
 23.3096160875114258 17.0811532653128673 65.2817003358072867
 25.7393822630100289 29.1922406919282906 68.9864658531235762
 23.2742816198146372 16.6607093430448643 69.4928310107105744
 23.9738069794447881 17.4568761735236038 66.5592926600366610
 29.3286501411687439 20.4636062243091672 63.4582386077142147
 28.4175951649408596 20.0982789869787339 64.4155827871698961
 10.5652952825642412 11.2879787488046563 58.5031435438707916
 28.4707409779746605 19.4701239979502922 66.9812626776539020
 23.7790806077714976 17.6971897717128641 72.2640207043657909
 25.2932583627380616 18.0730977047152166 72.3882001390545895
 22.9494781733452236 18.3277517695146273 71.0517827018002066
 24.8173507442666654 19.5030995072297699 63.8043504286284886
 27.1658508786021002 21.4252425279587264 67.0130925976857839
 20.8341423242163941 17.6160727512655342 66.8567622254606420
 27.0366928309996553 24.5713506259239622 70.2574021930687138
 25.6713528298334843 24.5013471565154433 70.4962963209835181
  5.0872238136068431  8.1645731584157790 81.3154330846597020
  8.6464842895700880  4.5589664085246504 77.6757490759622868
  9.1557009196089201  1.9343717717079518 81.6624536209290000
  9.0999941421766657  1.0214191743647509 80.5948583433009134
  9.3931145467340240  3.2178139808954676 82.3255631418297043
 10.0269107656030805  5.8450867618728273 81.6981736471093427
  9.0983156754101522  1.3589311378932551 79.0820627370117393
  9.3590710960549366  4.6995179526754178 82.3638675764007075
  5.4617767129805799  5.2241225050762674 79.0822402061756833
  7.1241777052395339  6.8609167025167244 81.9578094376003179
  7.1038809415551674  6.2779228918755416 80.6079352078229761
  5.7620992018644319  6.1624744244348850 80.1542272537889033
  7.7881020825176952  4.9310470388862315 78.7371073062062123
  8.2143065119840788  5.7045698277551820 79.8590201509264404
  6.5070063184864306  4.4688813030573700 78.5660209376764556
 10.0563470791609291  4.7853570147237674 77.8857238128809684
  8.1535228500432186  1.8291083136543314 78.3220471376804142
  6.3119569971026142  3.2559345340346360 77.9279477891449233
  6.2852991667285902  7.9870197099021265 82.1367484400090859
 10.3721336675554223  4.7677024171424058 79.3715320396435118
  9.6457104555539139  5.8826803318873404 80.2109125999698591
  5.1087548925330282  2.6792982716692286 77.5614609930231182