SiOCHF   density: 2.25   2023-11-21 10:30:23
   1.0
     10.3545246513846    0.0000000000000    0.0000000000000
      0.0000000000000   10.3545246513846    0.0000000000000
      0.0000000000000    0.0000000000000   10.3545246513846
   Si   O   C   H   F
   8    64    8    8    8
Selective dynamics
Direct
  0.409593882038872  0.751860391003298  0.390951191230483   T   T   T
  0.734117613786597  0.324638922935621  0.214942118063292   T   T   T
  0.547171811017285  0.930170350795047  0.580698173180413   T   T   T
  0.091478281359923  0.414527346193941  0.671833462060574   T   T   T
  0.023583148978956  0.084176940397297  0.242246458199024   T   T   T
  0.459585328123136  0.137659623179189  0.320070027153825   T   T   T
  0.558676218459070  0.161593396385643  0.074103469049708   T   T   T
  0.033723844814098  0.962023294102685  0.424059581039790   T   T   T
  0.713428783425302  0.087066864908863  0.368051081585187   T   T   T
  0.988321895454072  0.154179966059844  0.897108228390030   T   T   T
  0.444895968879501  0.301428806616059  0.871275650894431   T   T   T
  0.671492803200308  0.218957800569500  0.538779962494603   T   T   T
  0.740591283273224  0.065790257377727  0.085546171335546   T   T   T
  0.003212109430564  0.553807759147710  0.878780154499309   T   T   T
  0.292738586267939  0.019447498538875  0.110838403424660   T   T   T
  0.321616506904721  0.243648387510257  0.777128582591427   T   T   T
  0.365882954799825  0.983056352993092  0.665630423535753   T   T   T
  0.189792389444449  0.200807630272018  0.225524643170333   T   T   T
  0.814808976324106  0.012919183788769  0.888104511391558   T   T   T
  0.769387672673109  0.904186147327468  0.452707254327250   T   T   T
  0.367005923347300  0.600177134350515  0.457681905790309   T   T   T
  0.779802916830624  0.602331129342229  0.747653033374328   T   T   T
  0.352265188884449  0.345391462503395  0.200605397157559   T   T   T
  0.994392854239362  0.490212311835843  0.120503091286112   T   T   T
  0.047358737261371  0.830952504446913  0.912425346133628   T   T   T
  0.098264323080384  0.043207191232541  0.769607449662504   T   T   T
  0.901427519700167  0.966295520344527  0.511781076867444   T   T   T
  0.290107071979852  0.375296405147335  0.665911480603143   T   T   T
  0.103273785193803  0.381473596043882  0.961902713278575   T   T   T
  0.739055239941721  0.765777376381469  0.185109696225917   T   T   T
  0.284434630741466  0.012748218394260  0.390849072283367   T   T   T
  0.894732206316537  0.818826884357699  0.675861502197426   T   T   T
  0.255970868492206  0.061180893898956  0.544003519128121   T   T   T
  0.616464525633332  0.191673445115927  0.762169595826528   T   T   T
  0.134353166774870  0.909655968314233  0.737150845725703   T   T   T
  0.510634685191126  0.447811338059030  0.158708547343164   T   T   T
  0.776209655423551  0.533895123482285  0.345654251244426   T   T   T
  0.417018616404311  0.813653985312030  0.833500161100241   T   T   T
  0.909600069681338  0.886624991016960  0.063705801244848   T   T   T
  0.660673188711242  0.505202628264742  0.503080380019820   T   T   T
  0.527442181989673  0.519157823491112  0.350269868175121   T   T   T
  0.965011091293347  0.394136099489756  0.369246574537144   T   T   T
  0.147914025547423  0.242872886153212  0.745221633390456   T   T   T
  0.433146983286956  0.434063163606047  0.600880858042898   T   T   T
  0.681546757698883  0.664563654867731  0.290577722652304   T   T   T
  0.971580565771431  0.178409910713608  0.648487355171741   T   T   T
  0.273706947670235  0.027635563611257  0.982480823062860   T   T   T
  0.154031372713834  0.900713193111120  0.072557004263090   T   T   T
  0.589265798216074  0.443396730235911  0.914733601312757   T   T   T
  0.939212855200545  0.882827227292825  0.292908886034077   T   T   T
  0.757359340671260  0.502026130167290  0.162288576563984   T   T   T
  0.339576040318847  0.513855474370978  0.056403087748757   T   T   T
  0.902677483640003  0.356955014201353  0.774170816948909   T   T   T
  0.596744164838281  0.533828037283889  0.700096631220667   T   T   T
  0.498734318273591  0.982692649672578  0.948558084874825   T   T   T
  0.618759453227512  0.749030223094622  0.040810803623724   T   T   T
  0.212989383685813  0.745641361620511  0.386523764227357   T   T   T
  0.552195117397895  0.048062281318085  0.447465140801344   T   T   T
  0.866958424243569  0.091190466683051  0.542471206179353   T   T   T
  0.855371808012187  0.648017533323426  0.057200686099765   T   T   T
  0.703276528281422  0.365415347185865  0.739583868213078   T   T   T
  0.009447206082490  0.764880398668474  0.056997511452969   T   T   T
  0.704230356293038  0.866825325164719  0.624422874728801   T   T   T
  0.118220604372767  0.459595566891778  0.454743852300479   T   T   T
  0.761793235383472  0.128495720944809  0.751200048180326   T   T   T
  0.205875375581081  0.416888627058524  0.122337190600025   T   T   T
  0.320545004818170  0.750604709667721  0.563781940521969   T   T   T
  0.203913833152738  0.569549087915875  0.956690005343443   T   T   T
  0.161026527942197  0.961601129406931  0.575989187533129   T   T   T
  0.513244197027051  0.882902712882538  0.111633110209187   T   T   T
  0.594059264097989  0.841051767353076  0.834100310477278   T   T   T
  0.527238798394630  0.879442700720392  0.405637025851440   T   T   T
  0.101802318616826  0.637327310594875  0.537974988024446   T   T   T
  0.596313449444654  0.968789572079838  0.272734251369629   T   T   T
  0.377651997901103  0.091043303706115  0.738285188317184   T   T   T
  0.276720220581221  0.777659486717985  0.211618812105794   T   T   T
  0.967554391572546  0.653258004812065  0.674930042734848   T   T   T
  0.533827941120214  0.350125222085256  0.396400091451621   T   T   T
  0.826731697104914  0.512629491684038  0.891963035006962   T   T   T
  0.135971866102570  0.352638435907145  0.279589340777722   T   T   T
  0.295580128242233  0.943496832519324  0.816991995659554   T   T   T
  0.140365855591113  0.978849120425837  0.933792091504926   T   T   T
  0.962993831681948  0.576058247401731  0.469941792507306   T   T   T
  0.751964199369687  0.893226994829683  0.049863110270891   T   T   T
  0.970629848375272  0.713139115303155  0.349941633548658   T   T   T
  0.922418907169409  0.677859254477050  0.923443331102279   T   T   T
  0.971007831585669  0.035902355173296  0.798949526898286   T   T   T
  0.013161135036232  0.158561918421100  0.506882953056240   T   T   T
  0.979576629052481  0.373749897605672  0.948130766108779   T   T   T
  0.375257582988060  0.386721345363428  0.353086196955496   T   T   T
  0.892086583229050  0.228908107477863  0.084547690016781   T   T   T
  0.288493208631152  0.384031417483423  0.940567265101858   T   T   T
  0.647734638838346  0.690340189160247  0.771402619382359   T   T   T
  0.555357665815450  0.247084350699526  0.227378357819279   T   T   T
  0.687202003592343  0.289424342192383  0.041932464516561   T   T   T
  0.061258096431753  0.810498007637012  0.590636645673600   F   F   F
