SiOF   density: 1.18   2023-11-21 10:30:23
   1.0
     14.1679061388240    0.0000000000000    0.0000000000000
      0.0000000000000   14.1679061388240    0.0000000000000
      0.0000000000000    0.0000000000000   14.1679061388240
   Si   O   F
   20    20    60
Selective dynamics
Direct
  0.133010197302950  0.852392623030229  0.685318625635891   T   T   T
  0.229229162373621  0.299203492730770  0.364044468487744   T   T   T
  0.558439147044875  0.387738028121788  0.969951379206930   T   T   T
  0.383233392841154  0.221903378090017  0.544651088765164   T   T   T
  0.774353887831840  0.212533569037086  0.841341173257177   T   T   T
  0.716606863239407  0.455659003730692  0.266669687948572   T   T   T
  0.622799578011475  0.221197948322757  0.755862094090436   T   T   T
  0.842948203042936  0.018967609658474  0.833929661773900   T   T   T
  0.769258799614241  0.861484336866134  0.945396120475587   T   T   T
  0.978070755489384  0.328687348802031  0.603282949845035   T   T   T
  0.788565762161890  0.643087096792604  0.166107040079623   T   T   T
  0.404268488517091  0.236379137308511  0.085626841472767   T   T   T
  0.826211569331596  0.758366762522206  0.469311560375511   T   T   T
  0.501753129140719  0.442274055811586  0.737644834339117   T   T   T
  0.952003469941843  0.307249207179162  0.161302439193977   T   T   T
  0.163506150958107  0.558954996068406  0.690252939857540   T   T   T
  0.511042354374971  0.263893670518243  0.972735763540716   T   T   T
  0.181479211889368  0.035685470090575  0.412049672357579   T   T   T
  0.982472528071088  0.087241577067318  0.502818568571204   T   T   T
  0.145013916172604  0.741278550325975  0.292233402410326   T   T   T
  0.277506360651275  0.621269214830504  0.466082935929498   T   T   T
  0.380172724617109  0.586374625756574  0.741576909580140   T   T   T
  0.835476747825622  0.641879890757233  0.690660321636696   T   T   T
  0.133159226985857  0.215155284080255  0.937656583459146   T   T   T
  0.385391836499919  0.396365974700927  0.404008397573831   T   T   T
  0.445287148663876  0.810127111990825  0.357513374336571   T   T   T
  0.591871892450184  0.786662434454861  0.829493405621954   T   T   T
  0.189066134978812  0.079537483054455  0.222955169237791   T   T   T
  0.775896765976102  0.387993306418241  0.813963367783833   T   T   T
  0.683250227153032  0.615726990046809  0.518275164509567   T   T   T
  0.613877979644550  0.729697001990366  0.398672184327603   T   T   T
  0.698609310095508  0.001562015696578  0.549291742828528   T   T   T
  0.159659946976656  0.193331977039586  0.552456667379735   T   T   T
  0.513845031275159  0.467490216515584  0.588038811104175   T   T   T
  0.473428488328477  0.693595022109930  0.208357384880784   T   T   T
  0.355321965679616  0.035494802810667  0.725577087295107   T   T   T
  0.315796128511851  0.717775223405306  0.981260590476476   T   T   T
  0.656489182766744  0.994213606092142  0.344588836067390   T   T   T
  0.702451334736924  0.860812771838181  0.718645921922832   T   T   T
  0.599364820665417  0.763594605083365  0.248022831088987   T   T   T
  0.653623398843537  0.432437024649284  0.719728864401444   T   T   T
  0.917255086304257  0.158682716903018  0.829654202555348   T   T   T
  0.741437904028061  0.366758029159139  0.596354258261290   T   T   T
  0.664941631920165  0.585190002484750  0.789195827995926   T   T   T
  0.872420654837308  0.327896295676449  0.490074155344157   T   T   T
  0.621298876647520  0.963957893321211  0.913304852080684   T   T   T
  0.281351743923456  0.572118441737573  0.867787094100797   T   T   T
  0.007632834999061  0.509391650656609  0.711830870834184   T   T   T
  0.251801460882842  0.127621461987830  0.380616074297558   T   T   T
  0.067546387965655  0.527538083821593  0.062427495889955   T   T   T
  0.622111896541075  0.578630172511006  0.679955067260104   T   T   T
  0.731825448762878  0.317755660199405  0.902116041503585   T   T   T
  0.090986964918485  0.883579740559508  0.377549426736236   T   T   T
  0.247086230019171  0.888717060194776  0.638229621717112   T   T   T
  0.161056306249741  0.739110092881321  0.591433771479067   T   T   T
  0.863450539246665  0.375827844226582  0.977991839872609   T   T   T
  0.758115601876036  0.273707936273604  0.259694949229463   T   T   T
  0.878147860591954  0.421344955328370  0.865732837713257   T   T   T
  0.496767901746729  0.598095609257486  0.398770593626293   T   T   T
  0.477104697085157  0.268337701961762  0.411623069932968   T   T   T
  0.084589093591252  0.540487616663869  0.986270032046247   T   T   T
  0.029125808048570  0.475527932663498  0.475873866662279   T   T   T
  0.560124408611262  0.376936219882839  0.079226722144290   T   T   T
  0.708631105910151  0.664268692250283  0.638124060132053   T   T   T
  0.976923513545280  0.434188600417171  0.769038209312103   T   T   T
  0.315246908925852  0.264219381822285  0.450399720343088   T   T   T
  0.481416150463887  0.130898667535515  0.272800419293993   T   T   T
  0.371976191905924  0.424736924112113  0.046904951915291   T   T   T
  0.103102711165023  0.313174542175880  0.008114551561657   T   T   T
  0.975815653369022  0.059289286679583  0.101115834158109   T   T   T
  0.392475643608095  0.039888309184614  0.608834844936631   T   T   T
  0.471857680410102  0.593341571348622  0.545128982387190   T   T   T
  0.077049746834341  0.515081287966863  0.577439587658665   T   T   T
  0.658808040523513  0.403356677380868  0.430709035865042   T   T   T
  0.427423163863157  0.415770512698577  0.977352573004837   T   T   T
  0.327276321172433  0.684219099474179  0.101296004026502   T   T   T
  0.709216144282143  0.852271617013787  0.414010089771430   T   T   T
  0.720743555217549  0.588292153837062  0.373374645629262   T   T   T
  0.773637758034585  0.094921227732232  0.527416528444556   T   T   T
  0.374773843041827  0.081816513000267  0.939390514154136   T   T   T
  0.568320036454280  0.539133918169861  0.170428111268954   T   T   T
  0.497808794521948  0.171407836795269  0.608503755635770   T   T   T
  0.622963618400387  0.239937025558253  0.465380519064685   T   T   T
  0.545561292886899  0.032804267375686  0.716697941805893   T   T   T
  0.965148670967525  0.197085758145753  0.733166426543825   T   T   T
  0.363539060702719  0.123646441631160  0.430951371739981   T   T   T
  0.248997946213244  0.431317043200326  0.964899799040401   T   T   T
  0.269287448319049  0.330233879274180  0.727401636225226   T   T   T
  0.163692958118576  0.546750315479190  0.363458671910799   T   T   T
  0.605549701295363  0.357141986003414  0.546539848467556   T   T   T
  0.533919683500573  0.680853624666170  0.624388138165248   T   T   T
  0.308111982466472  0.000768912189047  0.405738296040923   T   T   T
  0.262252841114210  0.608282412793771  0.718251591425988   T   T   T
  0.167531743751525  0.562703756868762  0.121765773560789   T   T   T
  0.423684855534762  0.572694474659534  0.903668948414652   T   T   T
  0.289362527644431  0.500986445309827  0.670215536128684   T   T   T
  0.368454115946741  0.347047239359650  0.139125631293278   T   T   T
  0.682092274271372  0.494156698869372  0.866865068832533   T   T   T
  0.253251872986266  0.472665106692224  0.406443621885766   T   T   T
  0.802073223336128  0.979253433219002  0.478884512625212   F   F   F
