SiOCHF   density: 1.125   2023-11-21 10:30:23
   1.0
     13.0458835699348    0.0000000000000    0.0000000000000
      0.0000000000000   13.0458835699348    0.0000000000000
      0.0000000000000    0.0000000000000   13.0458835699348
   Si   O   C   H   F
   8    64    8    8    8
Selective dynamics
Direct
  0.955456711730817  0.175632909992385  0.377663483431967   T   T   T
  0.841475603235612  0.460282804523761  0.792940889446130   T   T   T
  0.596748083933873  0.375748869531072  0.021810066373886   T   T   T
  0.811429401755447  0.337487995378232  0.602943408559362   T   T   T
  0.782261232397556  0.212875938101524  0.581216660217366   T   T   T
  0.169064232903809  0.560334543516142  0.774779090642856   T   T   T
  0.352029284540818  0.732914822475490  0.908465608052026   T   T   T
  0.651524915851154  0.693292546412757  0.130367470442048   T   T   T
  0.247620557918173  0.797838304595598  0.446396486154705   T   T   T
  0.106778501549560  0.043565310363188  0.408866588482084   T   T   T
  0.616310670295967  0.209993550680462  0.965993807661763   T   T   T
  0.949096077100930  0.804825905189707  0.860551020499687   T   T   T
  0.314992273982885  0.622811988918339  0.781697719817396   T   T   T
  0.136814688269163  0.387435082641057  0.500088278623555   T   T   T
  0.088865833196863  0.255426366516250  0.819086946945525   T   T   T
  0.469837248760956  0.246462006292777  0.854515162855267   T   T   T
  0.593757078778658  0.171758677494919  0.599949250101900   T   T   T
  0.322695063585600  0.086342713972653  0.249307727327066   T   T   T
  0.558308448466256  0.633882104662531  0.637085712963169   T   T   T
  0.695359130765934  0.634311713952886  0.731505012605479   T   T   T
  0.959007046962678  0.046818456711688  0.998816606994590   T   T   T
  0.950284012767158  0.698416483131321  0.340348463530071   T   T   T
  0.852118543684643  0.799890652314843  0.942286020602841   T   T   T
  0.840412835364462  0.782357413353577  0.285096601096847   T   T   T
  0.391120186278370  0.537960986834537  0.097021120314856   T   T   T
  0.023850903370973  0.912033254652233  0.859450913714566   T   T   T
  0.212185953878447  0.670544103865216  0.509444606834435   T   T   T
  0.766279433157922  0.915777169399717  0.977927017520013   T   T   T
  0.385722828215444  0.337873141225291  0.865197849302919   T   T   T
  0.007244737592524  0.466643854161188  0.284072666249725   T   T   T
  0.905832614032153  0.573305328828888  0.933607970698116   T   T   T
  0.646749675089183  0.623469286532967  0.305825759398374   T   T   T
  0.838896985361041  0.347600741900082  0.723568069864954   T   T   T
  0.536678242416080  0.777374378271414  0.404632584211362   T   T   T
  0.488437779410491  0.606058681741069  0.145998291088016   T   T   T
  0.121268390926031  0.094108536520537  0.662460128130866   T   T   T
  0.483524252540965  0.255500873071917  0.294868854886591   T   T   T
  0.488492137018515  0.361964679098945  0.418337142812188   T   T   T
  0.493706134457042  0.061168539385319  0.242006601547788   T   T   T
  0.486606728408932  0.662862132902788  0.851359401208933   T   T   T
  0.284424695656719  0.296264852104400  0.276336713856116   T   T   T
  0.036417231221023  0.182114711077809  0.133335318026045   T   T   T
  0.033606021730600  0.515899362567862  0.454050644541527   T   T   T
  0.415096582909561  0.783302319906627  0.306600279102774   T   T   T
  0.502169349933733  0.156730330461419  0.395725918509152   T   T   T
  0.907928089016470  0.578803835608022  0.616233435242128   T   T   T
  0.322664873934937  0.183696300910562  0.862511885730432   T   T   T
  0.602275522865668  0.423450365765233  0.624559830469262   T   T   T
  0.433469009656771  0.542404881099135  0.503372856490093   T   T   T
  0.881116719779419  0.356408426165196  0.198861507270838   T   T   T
  0.406811659379864  0.084254526397088  0.511496779685715   T   T   T
  0.959935903156616  0.264922631824428  0.122521199114302   T   T   T
  0.730859371652866  0.715843894642132  0.834884215201256   T   T   T
  0.276241446556330  0.610079769685240  0.097788396795349   T   T   T
  0.689163403377973  0.478406891071713  0.971805162792485   T   T   T
  0.688536176281310  0.987466389446028  0.261811390589287   T   T   T
  0.547224249661298  0.037502027982353  0.863179387335060   T   T   T
  0.591034288841822  0.518074485580621  0.889762423820267   T   T   T
  0.049536529530659  0.634565092421466  0.258762507098123   T   T   T
  0.298254302563679  0.666093813723595  0.415561612637676   T   T   T
  0.639002840356490  0.909280952965418  0.792911869722287   T   T   T
  0.897360189756370  0.779417542652862  0.633784484762657   T   T   T
  0.788128188362062  0.046272310638041  0.590590198273926   T   T   T
  0.567649341596251  0.205613569362593  0.775302519577774   T   T   T
  0.075563326528094  0.311384473342575  0.409132977515634   T   T   T
  0.982872841573399  0.426585374044642  0.708782232292938   T   T   T
  0.330319022851288  0.178962358443159  0.342012655497167   T   T   T
  0.259860123486704  0.027979230310994  0.000926449084350   T   T   T
  0.698302752119452  0.808077771201868  0.750003991430160   T   T   T
  0.420293175170520  0.846309140163131  0.721564264338906   T   T   T
  0.995202814217268  0.706367996708779  0.214965194570606   T   T   T
  0.755964836982356  0.594344914720551  0.882973556873069   T   T   T
  0.255472583617042  0.317780063318574  0.109657107686473   T   T   T
  0.781886358435061  0.899474894814740  0.721894570582391   T   T   T
  0.421549737963675  0.411417230000159  0.149094320664528   T   T   T
  0.615243874694480  0.491713527041405  0.298011402858309   T   T   T
  0.432264281795907  0.911879475102250  0.015117789137893   T   T   T
  0.493235034567936  0.262404653224940  0.582918829481130   T   T   T
  0.304261194396637  0.482168651189343  0.587010635416926   T   T   T
  0.346339373315487  0.404101140743312  0.293250875566113   T   T   T
  0.711706961666815  0.392297648047363  0.740382967440143   T   T   T
  0.927509209355878  0.119686063055137  0.508251299081820   T   T   T
  0.323909322880933  0.281735879689546  0.688491270300913   T   T   T
  0.244309348100405  0.121793239428080  0.123355578978737   T   T   T
  0.664610670372079  0.826460484009526  0.257476008816894   T   T   T
  0.826601095662580  0.157156277551991  0.383819018503587   T   T   T
  0.944871844438251  0.241011376382703  0.545483522648331   T   T   T
  0.357706700366008  0.585692654766459  0.246781405153329   T   T   T
  0.417721475185567  0.986701734143340  0.954264307864649   T   T   T
  0.446781118961291  0.433317758896190  0.609251766387286   T   T   T
  0.306057089343837  0.703789035741841  0.672688371147514   T   T   T
  0.655399825822759  0.294990673475398  0.317602807916294   T   T   T
  0.006216164083701  0.193258028432143  0.262721573615665   T   T   T
  0.470138710472010  0.757732835706326  0.961163273543397   T   T   T
  0.483330535753055  0.327854083055997  0.757581789157763   T   T   T
  0.844472526400394  0.638314361643987  0.779440550376778   F   F   F
