C_F_oneshot                             
   1.00000000000000     
    10.0000000000000000    0.0000000000000000    0.0000000000000000
     0.0000000000000000   10.0000000000000000    0.0000000000000000
     0.0000000000000000    0.0000000000000000   10.0000000000000000
   C    F 
     1     1
Selective dynamics
Direct
  0.4328403000000023  0.5000000000000000  0.5000000000000000   T   T   T
  0.5671596999999977  0.5000000000000000  0.5000000000000000   T   T   F
 
  0.00000000E+00  0.00000000E+00  0.00000000E+00
  0.00000000E+00  0.00000000E+00  0.00000000E+00
