SiOF   density: 2.36   2023-11-21 10:30:23
   1.0
     11.2450745544780    0.0000000000000    0.0000000000000
      0.0000000000000   11.2450745544780    0.0000000000000
      0.0000000000000    0.0000000000000   11.2450745544780
   Si   O   F
   20    20    60
Selective dynamics
Direct
  0.051041793705102  0.100195254746998  0.250683611830188   T   T   T
  0.403081827331511  0.023874121392051  0.381796401209934   T   T   T
  0.520215226612020  0.771825849951063  0.385101776333062   T   T   T
  0.875698659157268  0.790919810027908  0.121200913212729   T   T   T
  0.481592393715998  0.494449180655779  0.128712139909661   T   T   T
  0.933358306700942  0.922436906015593  0.865634424349163   T   T   T
  0.835546996919024  0.099848254084392  0.417727578503559   T   T   T
  0.882718569634235  0.700989029919033  0.723557111234574   T   T   T
  0.294394465169300  0.740910534906829  0.190243157439276   T   T   T
  0.661379563659418  0.911436380648233  0.946951313138496   T   T   T
  0.688205208471348  0.300493509834539  0.649638228820519   T   T   T
  0.226137281303692  0.692531172093365  0.809778557211616   T   T   T
  0.772174911550708  0.736987951987900  0.342477950542004   T   T   T
  0.152986606924071  0.984959389324699  0.366043057480942   T   T   T
  0.521578588286042  0.275816730202795  0.916921634441261   T   T   T
  0.251061065736797  0.544619554317534  0.809377855597452   T   T   T
  0.573521430182345  0.791719448870589  0.171472796838080   T   T   T
  0.425524882873444  0.128189059326283  0.554194629578060   T   T   T
  0.947517650966430  0.358432254827481  0.865473279898525   T   T   T
  0.406957942392860  0.074131953535179  0.761059461981370   T   T   T
  0.894935502108329  0.185593275609879  0.300841560751220   T   T   T
  0.437522824575644  0.337127270446755  0.423515262539257   T   T   T
  0.501690635629593  0.076594683415930  0.058387112175956   T   T   T
  0.114898620483623  0.664461293186745  0.078175500032587   T   T   T
  0.224094370849074  0.927717254509513  0.798619739901629   T   T   T
  0.078377983078623  0.591695340797591  0.546290912638751   T   T   T
  0.893135047973612  0.215502409815832  0.626647628637468   T   T   T
  0.547307605333603  0.748085826938946  0.580290247710302   T   T   T
  0.745238281977168  0.730068954731016  0.130627168316621   T   T   T
  0.795609606959689  0.287532109163035  0.753115062190596   T   T   T
  0.260080152119381  0.727394050600924  0.008717001059683   T   T   T
  0.233358682726404  0.215684574902691  0.355902395307065   T   T   T
  0.703423323371790  0.784193393042535  0.543788546653164   T   T   T
  0.630011446443417  0.413207814587700  0.124243617760508   T   T   T
  0.691116794575896  0.939351467771368  0.453044808493717   T   T   T
  0.985075436933618  0.673464747401906  0.328093221720644   T   T   T
  0.788462943525426  0.850007068026676  0.254852605772210   T   T   T
  0.425787117400441  0.795696249993620  0.866936903837152   T   T   T
  0.349483400219741  0.750267413812353  0.708767663083479   T   T   T
  0.518673355618685  0.625697045370527  0.288367650253219   T   T   T
  0.598285780249717  0.077158281800846  0.746764584915854   T   T   T
  0.277813014801201  0.892588416708130  0.502900534797440   T   T   T
  0.068121500632838  0.595119124786168  0.906450168509188   T   T   T
  0.028867026044453  0.232811623024975  0.130822200328335   T   T   T
  0.602842727940771  0.403937469224880  0.844608482612455   T   T   T
  0.405147084080449  0.582599650651124  0.707884398020033   T   T   T
  0.755577549038538  0.194736615471618  0.512090386364668   T   T   T
  0.845306648117193  0.463489796509308  0.588104554818967   T   T   T
  0.265589568723935  0.613759864111465  0.577057799866161   T   T   T
  0.990409655818075  0.359071959386350  0.522094032258757   T   T   T
  0.703380661739116  0.584340157851448  0.114423191375664   T   T   T
  0.247749861800883  0.487945290028762  0.399425482972478   T   T   T
  0.809035096954248  0.982674726295894  0.124071119122054   T   T   T
  0.591153359254832  0.288281121851886  0.448999786999286   T   T   T
  0.966346156766552  0.811451044743909  0.682259978435367   T   T   T
  0.517361590095117  0.873199743718777  0.042421886124098   T   T   T
  0.729729296712857  0.502798051496585  0.810111088072857   T   T   T
  0.748241914123820  0.614970955058762  0.622903653516512   T   T   T
  0.841484924543856  0.323385414844737  0.981467721110658   T   T   T
  0.635739770333496  0.599382396465897  0.475478604296071   T   T   T
  0.771153036481396  0.133299469962941  0.832559630939495   T   T   T
  0.174211662984830  0.709340035034225  0.320132980809952   T   T   T
  0.022276810348005  0.004237316754749  0.130391148195558   T   T   T
  0.479531254421636  0.668621372780363  0.812296599689411   T   T   T
  0.403876162149358  0.958390465545718  0.911844490467507   T   T   T
  0.516256299479480  0.927015354953734  0.585226576955686   T   T   T
  0.043572009432651  0.328615449732736  0.329500542194973   T   T   T
  0.150118253279100  0.866313628071058  0.275724934017095   T   T   T
  0.085805315194230  0.991847375378629  0.550598432007937   T   T   T
  0.081473246435905  0.174811021465925  0.467082943044886   T   T   T
  0.526982255649516  0.571305064705262  0.958591706688014   T   T   T
  0.103064431826178  0.478628699223431  0.255651534807463   T   T   T
  0.293475488490510  0.419218657848731  0.972010928254482   T   T   T
  0.758339889038541  0.800918210959651  0.844268261755330   T   T   T
  0.641076244621064  0.495859176344373  0.329081030927424   T   T   T
  0.511335289583088  0.470644118074834  0.423535935174469   T   T   T
  0.260165512830158  0.237285857461517  0.550833924663159   T   T   T
  0.001435077203315  0.553966807177806  0.080823830173067   T   T   T
  0.195257237429230  0.936719198087506  0.114562239291619   T   T   T
  0.448128929668887  0.624207701616987  0.549466751053961   T   T   T
  0.240387775967243  0.379326707120606  0.688155833086485   T   T   T
  0.103394639311525  0.588131893659181  0.701189571499397   T   T   T
  0.326879762225391  0.279752727820056  0.186730453760592   T   T   T
  0.859107680841688  0.169940479037601  0.945792583553141   T   T   T
  0.972225505977118  0.822872910031575  0.328673176947310   T   T   T
  0.906353727720270  0.718558002326200  0.466795716227378   T   T   T
  0.379736017682762  0.244598966852755  0.836649381106827   T   T   T
  0.317620532057056  0.073186369628740  0.229661703925501   T   T   T
  0.830922859006358  0.498167105016741  0.416537152013746   T   T   T
  0.643327804784190  0.022961011296969  0.169674563378701   T   T   T
  0.420140321658899  0.407447927406213  0.729017787813260   T   T   T
  0.100238483610628  0.093549898374436  0.790868694815994   T   T   T
  0.713224886791368  0.306560855654390  0.306522378229014   T   T   T
  0.482557916500987  0.195451192950851  0.207436043640334   T   T   T
  0.242882565816006  0.757929458227476  0.450538427863556   T   T   T
  0.543160814241643  0.113390603693528  0.450892243011601   T   T   T
  0.876804965607801  0.669268088011201  0.886354485672552   T   T   T
  0.676944808271939  0.116714004101986  0.315451894859444   T   T   T
  0.571202483523663  0.257144854394863  0.783379008260823   T   T   T
  0.101003569192690  0.777753510728413  0.485471279956568   F   F   F
