 H  O Si                                
   1.00000000000000     
     9.9854713622970994    0.0000000000000000    0.0000000000000000
    -4.9927356812464998    8.6476718684975999    0.0000000000000000
     0.0000000000000000    0.0000000000000000   27.4653860133710985
   H_s    O_s    Si
    17    48    20
Selective dynamics
Direct
  0.5 0.5 0.25 T T T
  0.2436109223961142  0.2629294445895267  0.0986831704896849   F   F   F
  0.7346083823838935  0.2010568924915290  0.4281617257322919   T   T   T
  0.7345979661986144  0.7010361319408214  0.4281648728236483   T   T   T
  0.2436113931476583  0.7629269054080912  0.0986833080844435   F   F   F
  0.9239574895277521  0.9649686198574232  0.4310786801429911   T   T   T
  0.7436109850274248  0.2629323043726960  0.0986828236311619   F   F   F
  0.9239368425160147  0.4649440805818533  0.4310802735761903   T   T   T
  0.4239569554652601  0.9649694331149725  0.4310792806779368   T   T   T
  0.7436115821881156  0.7629239667444957  0.0986839527236198   F   F   F
  0.4239374776791902  0.4649627514650873  0.4310913299958705   T   T   T
  0.2345981346237517  0.7010325302705304  0.4281591111790642   T   T   T
  0.2346165532145027  0.2010558880330593  0.4281631920595556   T   T   T
  0.4884069912781070  0.8984585254438266  0.0734680303835330   F   F   F
  0.9884033077189867  0.8984625075068757  0.0734705915780347   F   F   F
  0.4884089833666954  0.3984573389901473  0.0734672145482794   F   F   F
  0.9884102034661607  0.3984540564410680  0.0734651633170729   F   F   F
  0.6740573924146196  0.0871225254089087  0.4245679127947284   T   T   T
  0.6740195095367074  0.5870991460099493  0.4245747109281859   T   T   T
  0.9232573228204330  0.7931431832640214  0.0852697137317691   F   F   F
  0.1301141545564093  0.2068568317359762  0.1021332412690086   F   F   F
  0.1301141545564093  0.7068568317359762  0.1021332412690086   F   F   F
  0.6301141545564093  0.2068568317359762  0.1021332412690086   F   F   F
  0.9232573228204330  0.2931431832640214  0.0852697137317691   F   F   F
  0.2926004799937442  0.4276176432076170  0.2346378047337150   T   T   T
  0.4232573228204330  0.7931431832640214  0.0852697137317691   F   F   F
  0.6301141545564093  0.7068568317359762  0.1021332412690086   F   F   F
  0.4232573228204330  0.2931431832640214  0.0852697137317691   F   F   F
  0.7926000811993169  0.9276356670099423  0.2346360753900820   T   T   T
  0.7925938875712571  0.4276239904718550  0.2346398731473859   T   T   T
  0.0706788544098866  0.8682426215794675  0.1701795501734036   T   T   T
  0.5706792520769796  0.3682342340622901  0.1701816483465569   T   T   T
  0.5706805583379013  0.8682384181909472  0.1701812362672924   T   T   T
  0.2926125512178374  0.9276347571589455  0.2346339939922529   T   T   T
  0.0706787440533322  0.3682384937702791  0.1701805111323743   T   T   T
  0.2107991077751990  0.1360669859560140  0.2179412883832597   T   T   T
  0.1740535595251073  0.0871267593401715  0.4245674415484736   T   T   T
  0.2108140105594557  0.6360748699084995  0.2179521804725490   T   T   T
  0.7108069161724350  0.1360813712317032  0.2179378482448928   T   T   T
  0.7108137228078318  0.6360842591613614  0.2179495624521779   T   T   T
  0.4128175635121493  0.3017741545868974  0.2895257564441249   T   T   T
  0.1740296920446343  0.5870984474074785  0.4245728470685885   T   T   T
  0.9128124528354723  0.3017721713929777  0.2895272245020534   T   T   T
  0.9127886173331906  0.8017945459188890  0.2895407311527317   T   T   T
  0.1119432570483108  0.2018813725933651  0.2980486664816218   T   T   T
  0.1119117643036835  0.7018825546608518  0.2980446888379840   T   T   T
  0.6119315461023491  0.2018665607139176  0.2980452232185832   T   T   T
  0.6119171321009028  0.7018899811423026  0.2980455269648923   T   T   T
  0.0681726243344708  0.3408159408727415  0.3738453828181100   T   T   T
  0.0681696071064736  0.8408259735195341  0.3738498728432721   T   T   T
  0.5681692407211051  0.3408255686878930  0.3738438373857468   T   T   T
  0.4127863157983532  0.8017918847666080  0.2895460428288134   T   T   T
  0.3104633955147929  0.4064895445426057  0.4290932739228323   T   T   T
  0.5681675291889312  0.8408145604772647  0.3738499563543572   T   T   T
  0.8609349979279486  0.5755909572404023  0.1488615908256828   T   T   T
  0.8609311622050346  0.0755869775770380  0.1488600962174605   T   T   T
  0.3609405379478874  0.0755929323444452  0.1488601564580642   T   T   T
  0.8464604498960003  0.5681910749838548  0.3486079481438331   T   T   T
  0.3609292941407367  0.5755895758529442  0.1488608518161911   T   T   T
  0.3464619636450184  0.5681842842317812  0.3486059759057953   T   T   T
  0.3464573393317833  0.0681888421596449  0.3485997713618821   T   T   T
  0.8104767238212471  0.9064989415037200  0.4290925513390344   T   T   T
  0.8104570903541737  0.4064906012008487  0.4290901244041826   T   T   T
  0.3104781687972006  0.9065065696557063  0.4290891574752235   T   T   T
  0.8464604971092986  0.0681855821229548  0.3486010950733229   T   T   T
  0.2566513873737696  0.7661406554671137  0.2602027850541073   T   T   T
  0.5000000000000000  0.2369344593231375  0.1270348133003907   F   F   F
  0.2566759176212527  0.2661465879542347  0.2602025682894667   T   T   T
  0.7337686515691751  0.5019670097514498  0.1927817745040674   T   T   T
  0.7337719558306161  0.0019609586300495  0.1927807365376631   T   T   T
  0.2337665216552531  0.5019594425773801  0.1927817959117930   T   T   T
  0.2337699444826110  0.0019538065934025  0.1927792879885867   T   T   T
  0.5000000000000000  0.7369344593231375  0.1270348133003907   F   F   F
  0.0000000000000000  0.7369344593231375  0.1270348133003907   F   F   F
  0.7301841869196173  0.4830113334638582  0.3944271847183291   T   T   T
  0.4860739786738102  0.7293229948993356  0.3271007106383357   T   T   T
  0.4860954485201950  0.2293232792967159  0.3270908787458554   T   T   T
  0.9860681983076555  0.7293299549297984  0.3270954039526868   T   T   T
  0.9860816082046561  0.2293079616532410  0.3270933046361544   T   T   T
  0.7301897242580573  0.9830035887583205  0.3944308707755542   T   T   T
  0.2301884855432927  0.4830049987005297  0.3944263239059462   T   T   T
  0.2301915748378621  0.9830206060798609  0.3944251345605615   T   T   T
  0.7566659178788581  0.2661552905910070  0.2601982156074008   T   T   T
  0.0000000000000000  0.2369344593231375  0.1270348133003907   F   F   F
  0.7566480279264094  0.7661474312421540  0.2602016004250239   T   T   T
