SiOCHF   density: 2.25   2023-11-21 10:30:22
   1.0
      7.2781614592680    0.0000000000000    0.0000000000000
      0.0000000000000    7.2781614592680    0.0000000000000
      0.0000000000000    0.0000000000000    7.2781614592680
   Si   O   C   H   F
   6    6    6    72    6
Selective dynamics
Direct
  0.632154325935149  0.245428449911252  0.461935050399560   T   T   T
  0.699752588943608  0.923532932631751  0.690998676763361   T   T   T
  0.241232923534663  0.250754470366137  0.088092883225607   T   T   T
  0.852700066590331  0.188512379884153  0.968885461933882   T   T   T
  0.917052149066730  0.092292058046160  0.705574282292758   T   T   T
  0.936813775529848  0.502048862715094  0.926109681707187   T   T   T
  0.504243229251496  0.577239818483035  0.132646180139659   T   T   T
  0.494463894250246  0.016006372792578  0.892477369934414   T   T   T
  0.220223229486991  0.744651727963717  0.025052154358200   T   T   T
  0.363855376179947  0.072242081790860  0.380688942722123   T   T   T
  0.021347379891179  0.899461554273666  0.091994708492537   T   T   T
  0.540874052880023  0.534375985814003  0.477986717214676   T   T   T
  0.574757279483991  0.743115222485895  0.951145489888702   T   T   T
  0.660239384062340  0.755163388545218  0.540857237114654   T   T   T
  0.226472926093487  0.299583740357242  0.389423250533909   T   T   T
  0.355917921845870  0.844527319264906  0.394848465251412   T   T   T
  0.790501845417882  0.004181929828979  0.251457373726280   T   T   T
  0.388351652395299  0.217118419054518  0.718296098998926   T   T   T
  0.750711207238474  0.251531084968443  0.160656439949058   T   T   T
  0.953883194061052  0.914010276870802  0.870038498741169   T   T   T
  0.986608353191579  0.832175736838642  0.264107513774314   T   T   T
  0.250868493736374  0.598693228193501  0.496149900674224   T   T   T
  0.741192678540494  0.715704822930436  0.311086544190436   T   T   T
  0.487308877938871  0.894510216856352  0.620297511881428   T   T   T
  0.109231748736134  0.023325104117264  0.105725738493714   T   T   T
  0.248142461166532  0.541920552857171  0.680066177606505   T   T   T
  0.012449278292761  0.032273541996454  0.533077507987935   T   T   T
  0.386744406768974  0.989837543882564  0.924078402777956   T   T   T
  0.995849474573342  0.285761498122385  0.355142088823473   T   T   T
  0.119800829600007  0.985849824387877  0.844365412593453   T   T   T
  0.136613402756265  0.148515950820787  0.922235649978888   T   T   T
  0.969321658039477  0.585925074447904  0.605375473514679   T   T   T
  0.028543699335244  0.593528232495048  0.398135387171781   T   T   T
  0.598305426846314  0.388343428956529  0.232600758699917   T   T   T
  0.512200504760618  0.451250263601210  0.724755870519119   T   T   T
  0.356015723175208  0.794614758617157  0.935418573678721   T   T   T
  0.388289996813343  0.944270902988373  0.118770309175008   T   T   T
  0.832520220748838  0.850420777158219  0.112938679681760   T   T   T
  0.196046413669695  0.813845972882063  0.819336371475522   T   T   T
  0.962814843901906  0.404899187028396  0.009401429608678   T   T   T
  0.692197750291513  0.161928382665471  0.004915143342131   T   T   T
  0.868132656117940  0.472197174326835  0.291471562356440   T   T   T
  0.294032545972357  0.835759388342675  0.642640894958666   T   T   T
  0.224360013318718  0.437241803016065  0.954981797916139   T   T   T
  0.029584257355021  0.216290915696603  0.495877898737391   T   T   T
  0.136403875331073  0.327427635395280  0.737563499052716   T   T   T
  0.028429857409048  0.353068616151193  0.974701812320494   T   T   T
  0.613209909516220  0.877810096977642  0.192637840971277   T   T   T
  0.033044404948338  0.866445248657168  0.455766667987786   T   T   T
  0.179888880794128  0.472844043698054  0.160216853249893   T   T   T
  0.615988172445692  0.246000430865083  0.822030837939782   T   T   T
  0.699638833820170  0.491318466253725  0.053214914668462   T   T   T
  0.953752923043985  0.329280328283188  0.655798621823317   T   T   T
  0.482936865879588  0.451740537258198  0.911109994146533   T   T   T
  0.692427407585566  0.991713029913993  0.409618070474386   T   T   T
  0.926752123912557  0.654563233587895  0.026237991807758   T   T   T
  0.961362313641499  0.014350988719525  0.004269805898844   T   T   T
  0.056678489543410  0.984849265235394  0.667094838075458   T   T   T
  0.637463474586680  0.744748587474989  0.040390957617870   T   T   T
  0.044229513531286  0.420132179305451  0.581714501108844   T   T   T
  0.807059568348160  0.494228580002093  0.681408703571166   T   T   T
  0.917736762683496  0.977678219393990  0.002156469912639   T   T   T
  0.516842904457035  0.121206269695678  0.105097445439912   T   T   T
  0.173352936155022  0.749170935462244  0.272180910354759   T   T   T
  0.638139373210606  0.091450623777408  0.716586384962416   T   T   T
  0.982753224308035  0.004474517766407  0.491751975985351   T   T   T
  0.850868135694833  0.753463711272325  0.943805340075992   T   T   T
  0.051871127978184  0.701437621835280  0.930542182265073   T   T   T
  0.024271810421696  0.311791378539178  0.242659877268847   T   T   T
  0.741302267542595  0.404336513459512  0.823706407734106   T   T   T
  0.279526075861489  0.011566344764297  0.628373385030907   T   T   T
  0.564200805778387  0.970067814698603  0.917207065692768   T   T   T
  0.419017107095402  0.704438461325777  0.662850000233649   T   T   T
  0.712185636616631  0.993620792972663  0.085718836606122   T   T   T
  0.046803606405883  0.620625101623795  0.732313172017434   T   T   T
  0.518691862265080  0.386654441551202  0.012219159954634   T   T   T
  0.340473869673070  0.604894859577059  0.976820310777220   T   T   T
  0.887449703205337  0.973771567738204  0.393935404760068   T   T   T
  0.046502028345400  0.699983159699496  0.550211388225632   T   T   T
  0.742776668517453  0.035063440031408  0.498471635232473   T   T   T
  0.021259237658425  0.058141684524246  0.288095640379166   T   T   T
  0.818198819976184  0.995012637990164  0.971950451800704   T   T   T
  0.984827036250053  0.711434272302466  0.762607887097366   T   T   T
  0.916134357027435  0.759199796469652  0.501395876695718   T   T   T
  0.314081394067550  0.037723400718954  0.137197908398335   T   T   T
  0.013676465000933  0.433892472127893  0.076927899415280   T   T   T
  0.971587884552407  0.624732388497521  0.203121314405054   T   T   T
  0.949215591196151  0.963777196818905  0.642494618108912   T   T   T
  0.772516469155736  0.676507834134115  0.792271265964407   T   T   T
  0.024158773557495  0.112843152639254  0.720057658138860   T   T   T
  0.383875527752754  0.462471074039807  0.315691762584869   T   T   T
  0.424212418720921  0.250875436770337  0.980935514600292   T   T   T
  0.156169579933727  0.974152044622345  0.255707166409816   T   T   T
  0.004974454862878  0.645996583252870  0.010695561418049   T   T   T
  0.388759082687429  0.346583642504950  0.531094810808388   T   T   T
  0.295808196632585  0.003582309546888  0.991265164905505   F   F   F
